********************************************************************************
Field Output Report, written Tue Feb 19 12:23:37 2019

Source 1
---------

   ODB: C:/Scratch/B737-19.odb
   Step: Jam
   Frame: Increment      1: Step Time =    1.000

Loc 1 : Element nodal  values at shell < ALUMINIUM > < 5 section points > from source 1 : SNEG, (fraction = -1.0) ( Average criteria = 75%, Not averaged across region boundaries )
Loc 2 : Element nodal  values at shell < ALUMINIUM > < 5 section points > from source 1 : SPOS, (fraction = 1.0) ( Average criteria = 75%, Not averaged across region boundaries )

Output sorted by column "Element Label".

Field Output reported at element nodes for region: B737-1.Region_1
   Computation algorithm: EXTRAPOLATE_COMPUTE_AVERAGE
   Averaged at nodes
   Averaging regions: ODB_REGIONS

   Element Label      Node Label         S.Mises         S.Mises
                                          @Loc 1          @Loc 2
-----------------------------------------------------------------
               1               1     1.17386E-03     1.17080E-03
               1              43     1.19368E-03     1.17295E-03
               1              56     1.12543E-03     1.12117E-03
               1            1034     1.14606E-03     1.12387E-03
               2              43     1.19368E-03     1.17295E-03
               2              44     1.19510E-03     1.16681E-03
               2            1034     1.14606E-03     1.12387E-03
               2            1035     1.14676E-03     1.12123E-03
               3               2     20.4992E-03     20.2964E-03
               3              44     1.19510E-03     1.16681E-03
               3              45     20.5839E-03     20.3681E-03
               3            1035     1.14676E-03     1.12123E-03
               4              55     982.033E-06     975.317E-06
               4              56     1.12543E-03     1.12117E-03
               4            1034     1.14606E-03     1.12387E-03
               4            1036     1.00278E-03     978.899E-06
               5            1034     1.14606E-03     1.12387E-03
               5            1035     1.14676E-03     1.12123E-03
               5            1036     1.00278E-03     978.899E-06
               5            1037     1.00474E-03     991.295E-06
               6              45     20.5839E-03     20.3681E-03
               6              46     19.1972E-03     19.0069E-03
               6            1035     1.14676E-03     1.12123E-03
               6            1037     1.00474E-03     991.295E-06
               7              54     763.102E-06     753.043E-06
               7              55     982.033E-06     975.317E-06
               7            1036     1.00278E-03     978.899E-06
               7            1038     782.710E-06     755.460E-06
               8            1036     1.00278E-03     978.899E-06
               8            1037     1.00474E-03     991.295E-06
               8            1038     782.710E-06     755.460E-06
               8            1039     790.046E-06     793.747E-06
               9              46     19.1972E-03     19.0069E-03
               9              47     16.1039E-03     16.3321E-03
               9            1037     1.00474E-03     991.295E-06
               9            1039     790.046E-06     793.747E-06
              10              53     479.123E-06     473.192E-06
              10              54     763.102E-06     753.043E-06
              10            1038     782.710E-06     755.460E-06
              10            1040     530.987E-06     495.042E-06
              11            1038     782.710E-06     755.460E-06
              11            1039     790.046E-06     793.747E-06
              11            1040     530.987E-06     495.042E-06
              11            1041     532.479E-06     575.216E-06
              12              47     16.1039E-03     16.3321E-03
              12              48     12.5332E-03     13.0900E-03
              12            1039     790.046E-06     793.747E-06
              12            1041     532.479E-06     575.216E-06
              13              52     318.893E-06     392.495E-06
              13              53     479.123E-06     473.192E-06
              13            1040     530.987E-06     495.042E-06
              13            1042     434.250E-06     430.682E-06
              14            1040     530.987E-06     495.042E-06
              14            1041     532.479E-06     575.216E-06
              14            1042     434.250E-06     430.682E-06
              14            1043     529.471E-06     602.717E-06
              15              48     12.5332E-03     13.0900E-03
              15              49     9.73388E-03     11.1956E-03
              15            1041     532.479E-06     575.216E-06
              15            1043     529.471E-06     602.717E-06
              16               4     273.311E-06     410.995E-06
              16              51     355.500E-06     413.853E-06
              16              52     318.893E-06     392.495E-06
              16            1042     434.250E-06     430.682E-06
              17              50     548.327E-06     644.018E-06
              17              51     355.500E-06     413.853E-06
              17            1042     434.250E-06     430.682E-06
              17            1043     529.471E-06     602.717E-06
              18               3     9.09588E-03     11.4114E-03
              18              49     9.73388E-03     11.1956E-03
              18              50     548.327E-06     644.018E-06
              18            1043     529.471E-06     602.717E-06
              19               2     20.4992E-03     20.2964E-03
              19              45     20.5839E-03     20.3681E-03
              19              57     40.0818E-03     39.5854E-03
              19            1044     40.4171E-03     39.8733E-03
              20              57     40.0818E-03     39.5854E-03
              20              58     40.1461E-03     39.8378E-03
              20            1044     40.4171E-03     39.8733E-03
              20            1045     40.5019E-03     40.2236E-03
              21              58     40.1461E-03     39.8378E-03
              21              59     40.0536E-03     39.8987E-03
              21            1045     40.5019E-03     40.2236E-03
              21            1046     40.3407E-03     40.2885E-03
              22              59     40.0536E-03     39.8987E-03
              22              60     40.1635E-03     39.8407E-03
              22            1046     40.3407E-03     40.2885E-03
              22            1047     40.4854E-03     40.2306E-03
              23              60     40.1635E-03     39.8407E-03
              23              61     39.8920E-03     40.1023E-03
              23            1047     40.4854E-03     40.2306E-03
              23            1048     40.3514E-03     40.5969E-03
              24              61     39.8920E-03     40.1023E-03
              24              62     40.3742E-03     40.3099E-03
              24            1048     40.3514E-03     40.5969E-03
              24            1049     40.9249E-03     40.8686E-03
              25              62     40.3742E-03     40.3099E-03
              25              63     40.4349E-03     39.6756E-03
              25            1049     40.9249E-03     40.8686E-03
              25            1050     40.8942E-03     40.0218E-03
              26              63     40.4349E-03     39.6756E-03
              26              64     38.9855E-03     38.6228E-03
              26            1050     40.8942E-03     40.0218E-03
              26            1051     39.2144E-03     38.8818E-03
              27              64     38.9855E-03     38.6228E-03
              27              65     38.3601E-03     37.8388E-03
              27            1051     39.2144E-03     38.8818E-03
              27            1052     38.5386E-03     38.1790E-03
              28              65     38.3601E-03     37.8388E-03
              28              66     38.7566E-03     37.7681E-03
              28            1052     38.5386E-03     38.1790E-03
              28            1053     38.9149E-03     38.1978E-03
              29              66     38.7566E-03     37.7681E-03
              29              67     38.9987E-03     38.0804E-03
              29            1053     38.9149E-03     38.1978E-03
              29            1054     39.1497E-03     38.6863E-03
              30              67     38.9987E-03     38.0804E-03
              30              68     39.0020E-03     38.4126E-03
              30            1054     39.1497E-03     38.6863E-03
              30            1055     39.2521E-03     39.1337E-03
              31              68     39.0020E-03     38.4126E-03
              31              69     39.0995E-03     38.9951E-03
              31            1055     39.2521E-03     39.1337E-03
              31            1056     39.5976E-03     39.6728E-03
              32              69     39.0995E-03     38.9951E-03
              32              70     39.1950E-03     39.3974E-03
              32            1056     39.5976E-03     39.6728E-03
              32            1057     39.9835E-03     39.8349E-03
              33              70     39.1950E-03     39.3974E-03
              33              71     38.7340E-03     40.0992E-03
              33            1057     39.9835E-03     39.8349E-03
              33            1058     39.7350E-03     40.5590E-03
              34              71     38.7340E-03     40.0992E-03
              34              72     40.0002E-03     40.4547E-03
              34            1058     39.7350E-03     40.5590E-03
              34            1059     40.8660E-03     40.9299E-03
              35              72     40.0002E-03     40.4547E-03
              35              73     40.2173E-03     39.1857E-03
              35            1059     40.8660E-03     40.9299E-03
              35            1060     40.7346E-03     39.2957E-03
              36              73     40.2173E-03     39.1857E-03
              36              74     37.9420E-03     38.0791E-03
              36            1060     40.7346E-03     39.2957E-03
              36            1061     38.3135E-03     38.4082E-03
              37              74     37.9420E-03     38.0791E-03
              37              75     37.6367E-03     37.0195E-03
              37            1061     38.3135E-03     38.4082E-03
              37            1062     37.8539E-03     37.6497E-03
              38              75     37.6367E-03     37.0195E-03
              38              76     38.5047E-03     36.6281E-03
              38            1062     37.8539E-03     37.6497E-03
              38            1063     38.7156E-03     37.3488E-03
              39              76     38.5047E-03     36.6281E-03
              39              77     39.0975E-03     37.4668E-03
              39            1063     38.7156E-03     37.3488E-03
              39            1064     39.1972E-03     38.4899E-03
              40              77     39.0975E-03     37.4668E-03
              40              78     39.3404E-03     38.0524E-03
              40            1064     39.1972E-03     38.4899E-03
              40            1065     39.6645E-03     39.1045E-03
              41              78     39.3404E-03     38.0524E-03
              41              79     39.5039E-03     39.0101E-03
              41            1065     39.6645E-03     39.1045E-03
              41            1066     40.0692E-03     39.8263E-03
              42              79     39.5039E-03     39.0101E-03
              42              80     39.7029E-03     40.1677E-03
              42            1066     40.0692E-03     39.8263E-03
              42            1067     40.5557E-03     40.6380E-03
              43              80     39.7029E-03     40.1677E-03
              43              81     39.9252E-03     40.7136E-03
              43            1067     40.5557E-03     40.6380E-03
              43            1068     41.0006E-03     40.7909E-03
              44              81     39.9252E-03     40.7136E-03
              44              82     39.2089E-03     41.7235E-03
              44            1068     41.0006E-03     40.7909E-03
              44            1069     40.4177E-03     41.8825E-03
              45              82     39.2089E-03     41.7235E-03
              45              83     41.2092E-03     41.9852E-03
              45            1069     40.4177E-03     41.8825E-03
              45            1070     42.0024E-03     42.1243E-03
              46              83     41.2092E-03     41.9852E-03
              46              84     41.3963E-03     40.0472E-03
              46            1070     42.0024E-03     42.1243E-03
              46            1071     41.6187E-03     39.6540E-03
              47              84     41.3963E-03     40.0472E-03
              47              85     38.1479E-03     39.1088E-03
              47            1071     41.6187E-03     39.6540E-03
              47            1072     38.3949E-03     39.1832E-03
              48              85     38.1479E-03     39.1088E-03
              48              86     38.5477E-03     37.8285E-03
              48            1072     38.3949E-03     39.1832E-03
              48            1073     38.5475E-03     38.3444E-03
              49              86     38.5477E-03     37.8285E-03
              49              87     39.9396E-03     37.3034E-03
              49            1073     38.5475E-03     38.3444E-03
              49            1074     39.9376E-03     37.8618E-03
              50              87     39.9396E-03     37.3034E-03
              50              88     40.6258E-03     38.6864E-03
              50            1074     39.9376E-03     37.8618E-03
              50            1075     40.5036E-03     39.6302E-03
              51              88     40.6258E-03     38.6864E-03
              51              89     41.0771E-03     39.4418E-03
              51            1075     40.5036E-03     39.6302E-03
              51            1076     41.1792E-03     40.2469E-03
              52              89     41.0771E-03     39.4418E-03
              52              90     41.3126E-03     40.7548E-03
              52            1076     41.1792E-03     40.2469E-03
              52            1077     41.6471E-03     41.1502E-03
              53              90     41.3126E-03     40.7548E-03
              53              91     41.5240E-03     42.2080E-03
              53            1077     41.6471E-03     41.1502E-03
              53            1078     42.1061E-03     42.1433E-03
              54              91     41.5240E-03     42.2080E-03
              54              92     41.7049E-03     42.7576E-03
              54            1078     42.1061E-03     42.1433E-03
              54            1079     42.4600E-03     42.2392E-03
              55              92     41.7049E-03     42.7576E-03
              55              93     40.6201E-03     43.9790E-03
              55            1079     42.4600E-03     42.2392E-03
              55            1080     41.4512E-03     43.5399E-03
              56              93     40.6201E-03     43.9790E-03
              56              94     43.1411E-03     44.0575E-03
              56            1080     41.4512E-03     43.5399E-03
              56            1081     43.2909E-03     43.4966E-03
              57              94     43.1411E-03     44.0575E-03
              57              95     43.1418E-03     41.5571E-03
              57            1081     43.2909E-03     43.4966E-03
              57            1082     42.5807E-03     40.2568E-03
              58              95     43.1418E-03     41.5571E-03
              58              96     39.5036E-03     41.6288E-03
              58            1082     42.5807E-03     40.2568E-03
              58            1083     39.0618E-03     40.6412E-03
              59              96     39.5036E-03     41.6288E-03
              59              97     41.0710E-03     40.9814E-03
              59            1083     39.0618E-03     40.6412E-03
              59            1084     40.3083E-03     40.3049E-03
              60              97     41.0710E-03     40.9814E-03
              60              98     42.4651E-03     40.7087E-03
              60            1084     40.3083E-03     40.3049E-03
              60            1085     41.7537E-03     40.0542E-03
              61              98     42.4651E-03     40.7087E-03
              61              99     42.5906E-03     42.6746E-03
              61            1085     41.7537E-03     40.0542E-03
              61            1086     42.1458E-03     42.4349E-03
              62              99     42.5906E-03     42.6746E-03
              62             100     42.8231E-03     42.6292E-03
              62            1086     42.1458E-03     42.4349E-03
              62            1087     42.4607E-03     42.2342E-03
              63             100     42.8231E-03     42.6292E-03
              63             101     41.2470E-03     43.8739E-03
              63            1087     42.4607E-03     42.2342E-03
              63            1088     41.2346E-03     43.4965E-03
              64             101     41.2470E-03     43.8739E-03
              64             102     43.6174E-03     43.9101E-03
              64            1088     41.2346E-03     43.4965E-03
              64            1089     42.7144E-03     43.2238E-03
              65             102     43.6174E-03     43.9101E-03
              65             103     43.1418E-03     41.2933E-03
              65            1089     42.7144E-03     43.2238E-03
              65            1090     41.6130E-03     39.3165E-03
              66               5     81.3544E-03     84.2952E-03
              66             103     43.1418E-03     41.2933E-03
              66             104     71.5280E-03     70.3047E-03
              66            1090     41.6130E-03     39.3165E-03
              67              45     20.5839E-03     20.3681E-03
              67              46     19.1972E-03     19.0069E-03
              67            1044     40.4171E-03     39.8733E-03
              67            1091     37.6120E-03     37.2292E-03
              68            1044     40.4171E-03     39.8733E-03
              68            1045     40.5019E-03     40.2236E-03
              68            1091     37.6120E-03     37.2292E-03
              68            1092     37.6772E-03     37.6597E-03
              69            1045     40.5019E-03     40.2236E-03
              69            1046     40.3407E-03     40.2885E-03
              69            1092     37.6772E-03     37.6597E-03
              69            1093     37.8213E-03     38.0996E-03
              70            1046     40.3407E-03     40.2885E-03
              70            1047     40.4854E-03     40.2306E-03
              70            1093     37.8213E-03     38.0996E-03
              70            1094     38.3849E-03     38.4334E-03
              71            1047     40.4854E-03     40.2306E-03
              71            1048     40.3514E-03     40.5969E-03
              71            1094     38.3849E-03     38.4334E-03
              71            1095     38.7606E-03     39.1758E-03
              72            1048     40.3514E-03     40.5969E-03
              72            1049     40.9249E-03     40.8686E-03
              72            1095     38.7606E-03     39.1758E-03
              72            1096     40.5132E-03     39.6386E-03
              73            1049     40.9249E-03     40.8686E-03
              73            1050     40.8942E-03     40.0218E-03
              73            1096     40.5132E-03     39.6386E-03
              73            1097     40.8323E-03     39.6160E-03
              74            1050     40.8942E-03     40.0218E-03
              74            1051     39.2144E-03     38.8818E-03
              74            1097     40.8323E-03     39.6160E-03
              74            1098     38.1283E-03     38.6141E-03
              75            1051     39.2144E-03     38.8818E-03
              75            1052     38.5386E-03     38.1790E-03
              75            1098     38.1283E-03     38.6141E-03
              75            1099     37.2860E-03     37.5973E-03
              76            1052     38.5386E-03     38.1790E-03
              76            1053     38.9149E-03     38.1978E-03
              76            1099     37.2860E-03     37.5973E-03
              76            1100     38.2911E-03     38.6916E-03
              77            1053     38.9149E-03     38.1978E-03
              77            1054     39.1497E-03     38.6863E-03
              77            1100     38.2911E-03     38.6916E-03
              77            1101     39.4061E-03     40.1219E-03
              78            1054     39.1497E-03     38.6863E-03
              78            1055     39.2521E-03     39.1337E-03
              78            1101     39.4061E-03     40.1219E-03
              78            1102     40.6947E-03     41.1884E-03
              79            1055     39.2521E-03     39.1337E-03
              79            1056     39.5976E-03     39.6728E-03
              79            1102     40.6947E-03     41.1884E-03
              79            1103     42.3180E-03     42.2761E-03
              80            1056     39.5976E-03     39.6728E-03
              80            1057     39.9835E-03     39.8349E-03
              80            1103     42.3180E-03     42.2761E-03
              80            1104     43.9708E-03     42.9921E-03
              81            1057     39.9835E-03     39.8349E-03
              81            1058     39.7350E-03     40.5590E-03
              81            1104     43.9708E-03     42.9921E-03
              81            1105     44.6719E-03     45.1916E-03
              82            1058     39.7350E-03     40.5590E-03
              82            1059     40.8660E-03     40.9299E-03
              82            1105     44.6719E-03     45.1916E-03
              82            1106     48.4765E-03     46.0989E-03
              83            1059     40.8660E-03     40.9299E-03
              83            1060     40.7346E-03     39.2957E-03
              83            1106     48.4765E-03     46.0989E-03
              83            1107     48.3573E-03     45.9783E-03
              84            1060     40.7346E-03     39.2957E-03
              84            1061     38.3135E-03     38.4082E-03
              84            1107     48.3573E-03     45.9783E-03
              84            1108     42.8620E-03     45.8702E-03
              85            1061     38.3135E-03     38.4082E-03
              85            1062     37.8539E-03     37.6497E-03
              85            1108     42.8620E-03     45.8702E-03
              85            1109     43.7908E-03     44.0599E-03
              86            1062     37.8539E-03     37.6497E-03
              86            1063     38.7156E-03     37.3488E-03
              86            1109     43.7908E-03     44.0599E-03
              86            1110     45.8939E-03     45.6779E-03
              87            1063     38.7156E-03     37.3488E-03
              87            1064     39.1972E-03     38.4899E-03
              87            1110     45.8939E-03     45.6779E-03
              87            1111     46.5347E-03     48.1441E-03
              88            1064     39.1972E-03     38.4899E-03
              88            1065     39.6645E-03     39.1045E-03
              88            1111     46.5347E-03     48.1441E-03
              88            1112     48.6028E-03     48.7027E-03
              89            1065     39.6645E-03     39.1045E-03
              89            1066     40.0692E-03     39.8263E-03
              89            1112     48.6028E-03     48.7027E-03
              89            1113     50.1627E-03     50.1213E-03
              90            1066     40.0692E-03     39.8263E-03
              90            1067     40.5557E-03     40.6380E-03
              90            1113     50.1627E-03     50.1213E-03
              90            1114     52.1591E-03     51.4499E-03
              91            1067     40.5557E-03     40.6380E-03
              91            1068     41.0006E-03     40.7909E-03
              91            1114     52.1591E-03     51.4499E-03
              91            1115     54.3332E-03     52.1715E-03
              92            1068     41.0006E-03     40.7909E-03
              92            1069     40.4177E-03     41.8825E-03
              92            1115     54.3332E-03     52.1715E-03
              92            1116     54.7409E-03     55.6670E-03
              93            1069     40.4177E-03     41.8825E-03
              93            1070     42.0024E-03     42.1243E-03
              93            1116     54.7409E-03     55.6670E-03
              93            1117     60.0499E-03     56.3835E-03
              94            1070     42.0024E-03     42.1243E-03
              94            1071     41.6187E-03     39.6540E-03
              94            1117     60.0499E-03     56.3835E-03
              94            1118     59.0529E-03     55.7284E-03
              95            1071     41.6187E-03     39.6540E-03
              95            1072     38.3949E-03     39.1832E-03
              95            1118     59.0529E-03     55.7284E-03
              95            1119     50.7727E-03     56.6225E-03
              96            1072     38.3949E-03     39.1832E-03
              96            1073     38.5475E-03     38.3444E-03
              96            1119     50.7727E-03     56.6225E-03
              96            1120     54.1057E-03     53.9047E-03
              97            1073     38.5475E-03     38.3444E-03
              97            1074     39.9376E-03     37.8618E-03
              97            1120     54.1057E-03     53.9047E-03
              97            1121     57.2786E-03     55.9102E-03
              98            1074     39.9376E-03     37.8618E-03
              98            1075     40.5036E-03     39.6302E-03
              98            1121     57.2786E-03     55.9102E-03
              98            1122     56.8259E-03     59.1106E-03
              99            1075     40.5036E-03     39.6302E-03
              99            1076     41.1792E-03     40.2469E-03
              99            1122     56.8259E-03     59.1106E-03
              99            1123     59.3550E-03     58.8936E-03
             100            1076     41.1792E-03     40.2469E-03
             100            1077     41.6471E-03     41.1502E-03
             100            1123     59.3550E-03     58.8936E-03
             100            1124     60.8174E-03     60.4371E-03
             101            1077     41.6471E-03     41.1502E-03
             101            1078     42.1061E-03     42.1433E-03
             101            1124     60.8174E-03     60.4371E-03
             101            1125     62.8295E-03     61.7529E-03
             102            1078     42.1061E-03     42.1433E-03
             102            1079     42.4600E-03     42.2392E-03
             102            1125     62.8295E-03     61.7529E-03
             102            1126     65.1446E-03     62.2698E-03
             103            1079     42.4600E-03     42.2392E-03
             103            1080     41.4512E-03     43.5399E-03
             103            1126     65.1446E-03     62.2698E-03
             103            1127     65.0703E-03     66.5007E-03
             104            1080     41.4512E-03     43.5399E-03
             104            1081     43.2909E-03     43.4966E-03
             104            1127     65.0703E-03     66.5007E-03
             104            1128     71.3211E-03     66.6761E-03
             105            1081     43.2909E-03     43.4966E-03
             105            1082     42.5807E-03     40.2568E-03
             105            1128     71.3211E-03     66.6761E-03
             105            1129     69.3495E-03     65.3071E-03
             106            1082     42.5807E-03     40.2568E-03
             106            1083     39.0618E-03     40.6412E-03
             106            1129     69.3495E-03     65.3071E-03
             106            1130     58.8607E-03     66.7541E-03
             107            1083     39.0618E-03     40.6412E-03
             107            1084     40.3083E-03     40.3049E-03
             107            1130     58.8607E-03     66.7541E-03
             107            1131     64.5792E-03     63.4014E-03
             108            1084     40.3083E-03     40.3049E-03
             108            1085     41.7537E-03     40.0542E-03
             108            1131     64.5792E-03     63.4014E-03
             108            1132     68.7259E-03     66.4144E-03
             109            1085     41.7537E-03     40.0542E-03
             109            1086     42.1458E-03     42.4349E-03
             109            1132     68.7259E-03     66.4144E-03
             109            1133     68.0328E-03     70.3923E-03
             110            1086     42.1458E-03     42.4349E-03
             110            1087     42.4607E-03     42.2342E-03
             110            1133     68.0328E-03     70.3923E-03
             110            1134     71.2936E-03     69.0939E-03
             111            1087     42.4607E-03     42.2342E-03
             111            1088     41.2346E-03     43.4965E-03
             111            1134     71.2936E-03     69.0939E-03
             111            1135     70.6889E-03     73.3305E-03
             112            1088     41.2346E-03     43.4965E-03
             112            1089     42.7144E-03     43.2238E-03
             112            1135     70.6889E-03     73.3305E-03
             112            1136     76.4179E-03     72.5353E-03
             113            1089     42.7144E-03     43.2238E-03
             113            1090     41.6130E-03     39.3165E-03
             113            1136     76.4179E-03     72.5353E-03
             113            1137     73.6672E-03     69.5659E-03
             114             104     71.5280E-03     70.3047E-03
             114             105     84.0802E-03     84.1020E-03
             114            1090     41.6130E-03     39.3165E-03
             114            1137     73.6672E-03     69.5659E-03
             115              46     19.1972E-03     19.0069E-03
             115              47     16.1039E-03     16.3321E-03
             115            1091     37.6120E-03     37.2292E-03
             115            1138     31.7122E-03     32.0775E-03
             116            1091     37.6120E-03     37.2292E-03
             116            1092     37.6772E-03     37.6597E-03
             116            1138     31.7122E-03     32.0775E-03
             116            1139     32.0674E-03     32.6497E-03
             117            1092     37.6772E-03     37.6597E-03
             117            1093     37.8213E-03     38.0996E-03
             117            1139     32.0674E-03     32.6497E-03
             117            1140     32.9185E-03     33.1959E-03
             118            1093     37.8213E-03     38.0996E-03
             118            1094     38.3849E-03     38.4334E-03
             118            1140     32.9185E-03     33.1959E-03
             118            1141     34.1387E-03     33.8281E-03
             119            1094     38.3849E-03     38.4334E-03
             119            1095     38.7606E-03     39.1758E-03
             119            1141     34.1387E-03     33.8281E-03
             119            1142     34.9523E-03     35.8304E-03
             120            1095     38.7606E-03     39.1758E-03
             120            1096     40.5132E-03     39.6386E-03
             120            1142     34.9523E-03     35.8304E-03
             120            1143     38.5837E-03     36.6754E-03
             121            1096     40.5132E-03     39.6386E-03
             121            1097     40.8323E-03     39.6160E-03
             121            1143     38.5837E-03     36.6754E-03
             121            1144     39.4901E-03     38.3401E-03
             122            1097     40.8323E-03     39.6160E-03
             122            1098     38.1283E-03     38.6141E-03
             122            1144     39.4901E-03     38.3401E-03
             122            1145     35.9168E-03     39.1451E-03
             123            1098     38.1283E-03     38.6141E-03
             123            1099     37.2860E-03     37.5973E-03
             123            1145     35.9168E-03     39.1451E-03
             123            1146     36.3840E-03     37.7414E-03
             124            1099     37.2860E-03     37.5973E-03
             124            1100     38.2911E-03     38.6916E-03
             124            1146     36.3840E-03     37.7414E-03
             124            1147     38.3122E-03     39.4780E-03
             125            1100     38.2911E-03     38.6916E-03
             125            1101     39.4061E-03     40.1219E-03
             125            1147     38.3122E-03     39.4780E-03
             125            1148     39.8451E-03     41.0976E-03
             126            1101     39.4061E-03     40.1219E-03
             126            1102     40.6947E-03     41.1884E-03
             126            1148     39.8451E-03     41.0976E-03
             126            1149     42.0921E-03     42.5286E-03
             127            1102     40.6947E-03     41.1884E-03
             127            1103     42.3180E-03     42.2761E-03
             127            1149     42.0921E-03     42.5286E-03
             127            1150     44.9437E-03     44.8738E-03
             128            1103     42.3180E-03     42.2761E-03
             128            1104     43.9708E-03     42.9921E-03
             128            1150     44.9437E-03     44.8738E-03
             128            1151     47.9890E-03     46.8055E-03
             129            1104     43.9708E-03     42.9921E-03
             129            1105     44.6719E-03     45.1916E-03
             129            1151     47.9890E-03     46.8055E-03
             129            1152     49.6708E-03     51.9142E-03
             130            1105     44.6719E-03     45.1916E-03
             130            1106     48.4765E-03     46.0989E-03
             130            1152     49.6708E-03     51.9142E-03
             130            1153     57.8089E-03     53.2967E-03
             131            1106     48.4765E-03     46.0989E-03
             131            1107     48.3573E-03     45.9783E-03
             131            1153     57.8089E-03     53.2967E-03
             131            1154     58.6538E-03     56.1995E-03
             132            1107     48.3573E-03     45.9783E-03
             132            1108     42.8620E-03     45.8702E-03
             132            1154     58.6538E-03     56.1995E-03
             132            1155     50.4044E-03     60.0008E-03
             133            1108     42.8620E-03     45.8702E-03
             133            1109     43.7908E-03     44.0599E-03
             133            1155     50.4044E-03     60.0008E-03
             133            1156     54.7409E-03     55.8553E-03
             134            1109     43.7908E-03     44.0599E-03
             134            1110     45.8939E-03     45.6779E-03
             134            1156     54.7409E-03     55.8553E-03
             134            1157     57.6671E-03     57.2258E-03
             135            1110     45.8939E-03     45.6779E-03
             135            1111     46.5347E-03     48.1441E-03
             135            1157     57.6671E-03     57.2258E-03
             135            1158     56.4485E-03     59.7548E-03
             136            1111     46.5347E-03     48.1441E-03
             136            1112     48.6028E-03     48.7027E-03
             136            1158     56.4485E-03     59.7548E-03
             136            1159     59.5352E-03     59.4203E-03
             137            1112     48.6028E-03     48.7027E-03
             137            1113     50.1627E-03     50.1213E-03
             137            1159     59.5352E-03     59.4203E-03
             137            1160     61.3498E-03     62.2027E-03
             138            1113     50.1627E-03     50.1213E-03
             138            1114     52.1591E-03     51.4499E-03
             138            1160     61.3498E-03     62.2027E-03
             138            1161     64.6491E-03     64.8870E-03
             139            1114     52.1591E-03     51.4499E-03
             139            1115     54.3332E-03     52.1715E-03
             139            1161     64.6491E-03     64.8870E-03
             139            1162     68.7015E-03     66.8091E-03
             140            1115     54.3332E-03     52.1715E-03
             140            1116     54.7409E-03     55.6670E-03
             140            1162     68.7015E-03     66.8091E-03
             140            1163     70.1157E-03     74.0348E-03
             141            1116     54.7409E-03     55.6670E-03
             141            1117     60.0499E-03     56.3835E-03
             141            1163     70.1157E-03     74.0348E-03
             141            1164     81.6366E-03     75.0298E-03
             142            1117     60.0499E-03     56.3835E-03
             142            1118     59.0529E-03     55.7284E-03
             142            1164     81.6366E-03     75.0298E-03
             142            1165     81.7439E-03     78.4675E-03
             143            1118     59.0529E-03     55.7284E-03
             143            1119     50.7727E-03     56.6225E-03
             143            1165     81.7439E-03     78.4675E-03
             143            1166     68.9136E-03     84.8703E-03
             144            1119     50.7727E-03     56.6225E-03
             144            1120     54.1057E-03     53.9047E-03
             144            1166     68.9136E-03     84.8703E-03
             144            1167     77.3128E-03     77.8189E-03
             145            1120     54.1057E-03     53.9047E-03
             145            1121     57.2786E-03     55.9102E-03
             145            1167     77.3128E-03     77.8189E-03
             145            1168     80.9808E-03     78.5167E-03
             146            1121     57.2786E-03     55.9102E-03
             146            1122     56.8259E-03     59.1106E-03
             146            1168     80.9808E-03     78.5167E-03
             146            1169     76.5087E-03     81.4362E-03
             147            1122     56.8259E-03     59.1106E-03
             147            1123     59.3550E-03     58.8936E-03
             147            1169     76.5087E-03     81.4362E-03
             147            1170     79.8014E-03     79.2146E-03
             148            1123     59.3550E-03     58.8936E-03
             148            1124     60.8174E-03     60.4371E-03
             148            1170     79.8014E-03     79.2146E-03
             148            1171     80.9404E-03     82.0742E-03
             149            1124     60.8174E-03     60.4371E-03
             149            1125     62.8295E-03     61.7529E-03
             149            1171     80.9404E-03     82.0742E-03
             149            1172     84.0484E-03     84.5760E-03
             150            1125     62.8295E-03     61.7529E-03
             150            1126     65.1446E-03     62.2698E-03
             150            1172     84.0484E-03     84.5760E-03
             150            1173     88.4500E-03     86.0612E-03
             151            1126     65.1446E-03     62.2698E-03
             151            1127     65.0703E-03     66.5007E-03
             151            1173     88.4500E-03     86.0612E-03
             151            1174     89.3996E-03     94.6570E-03
             152            1127     65.0703E-03     66.5007E-03
             152            1128     71.3211E-03     66.6761E-03
             152            1174     89.3996E-03     94.6570E-03
             152            1175     103.409E-03     95.1430E-03
             153            1128     71.3211E-03     66.6761E-03
             153            1129     69.3495E-03     65.3071E-03
             153            1175     103.409E-03     95.1430E-03
             153            1176     102.716E-03     98.8253E-03
             154            1129     69.3495E-03     65.3071E-03
             154            1130     58.8607E-03     66.7541E-03
             154            1176     102.716E-03     98.8253E-03
             154            1177     85.4139E-03     105.957E-03
             155            1130     58.8607E-03     66.7541E-03
             155            1131     64.5792E-03     63.4014E-03
             155            1177     85.4139E-03     105.957E-03
             155            1178     96.6058E-03     95.4240E-03
             156            1131     64.5792E-03     63.4014E-03
             156            1132     68.7259E-03     66.4144E-03
             156            1178     96.6058E-03     95.4240E-03
             156            1179     101.150E-03     96.7711E-03
             157            1132     68.7259E-03     66.4144E-03
             157            1133     68.0328E-03     70.3923E-03
             157            1179     101.150E-03     96.7711E-03
             157            1180     95.9994E-03     100.594E-03
             158            1133     68.0328E-03     70.3923E-03
             158            1134     71.2936E-03     69.0939E-03
             158            1180     95.9994E-03     100.594E-03
             158            1181     100.930E-03     96.6000E-03
             159            1134     71.2936E-03     69.0939E-03
             159            1135     70.6889E-03     73.3305E-03
             159            1181     100.930E-03     96.6000E-03
             159            1182     100.142E-03     105.148E-03
             160            1135     70.6889E-03     73.3305E-03
             160            1136     76.4179E-03     72.5353E-03
             160            1182     100.142E-03     105.148E-03
             160            1183     113.423E-03     104.448E-03
             161            1136     76.4179E-03     72.5353E-03
             161            1137     73.6672E-03     69.5659E-03
             161            1183     113.423E-03     104.448E-03
             161            1184     111.954E-03     106.930E-03
             162             105     84.0802E-03     84.1020E-03
             162             106     107.132E-03     113.216E-03
             162            1137     73.6672E-03     69.5659E-03
             162            1184     111.954E-03     106.930E-03
             163              47     16.1039E-03     16.3321E-03
             163              48     12.5332E-03     13.0900E-03
             163            1138     31.7122E-03     32.0775E-03
             163            1185     24.8685E-03     25.4937E-03
             164            1138     31.7122E-03     32.0775E-03
             164            1139     32.0674E-03     32.6497E-03
             164            1185     24.8685E-03     25.4937E-03
             164            1186     24.7486E-03     24.8423E-03
             165            1139     32.0674E-03     32.6497E-03
             165            1140     32.9185E-03     33.1959E-03
             165            1186     24.7486E-03     24.8423E-03
             165            1187     25.2382E-03     24.8754E-03
             166            1140     32.9185E-03     33.1959E-03
             166            1141     34.1387E-03     33.8281E-03
             166            1187     25.2382E-03     24.8754E-03
             166            1188     27.2492E-03     26.5781E-03
             167            1141     34.1387E-03     33.8281E-03
             167            1142     34.9523E-03     35.8304E-03
             167            1188     27.2492E-03     26.5781E-03
             167            1189     29.3125E-03     31.2639E-03
             168            1142     34.9523E-03     35.8304E-03
             168            1143     38.5837E-03     36.6754E-03
             168            1189     29.3125E-03     31.2639E-03
             168            1190     36.3502E-03     34.1318E-03
             169            1143     38.5837E-03     36.6754E-03
             169            1144     39.4901E-03     38.3401E-03
             169            1190     36.3502E-03     34.1318E-03
             169            1191     38.0872E-03     37.9883E-03
             170            1144     39.4901E-03     38.3401E-03
             170            1145     35.9168E-03     39.1451E-03
             170            1191     38.0872E-03     37.9883E-03
             170            1192     34.4714E-03     40.6548E-03
             171            1145     35.9168E-03     39.1451E-03
             171            1146     36.3840E-03     37.7414E-03
             171            1192     34.4714E-03     40.6548E-03
             171            1193     37.2258E-03     38.1150E-03
             172            1146     36.3840E-03     37.7414E-03
             172            1147     38.3122E-03     39.4780E-03
             172            1193     37.2258E-03     38.1150E-03
             172            1194     38.1875E-03     39.0374E-03
             173            1147     38.3122E-03     39.4780E-03
             173            1148     39.8451E-03     41.0976E-03
             173            1194     38.1875E-03     39.0374E-03
             173            1195     39.3467E-03     40.7512E-03
             174            1148     39.8451E-03     41.0976E-03
             174            1149     42.0921E-03     42.5286E-03
             174            1195     39.3467E-03     40.7512E-03
             174            1196     42.5421E-03     43.5040E-03
             175            1149     42.0921E-03     42.5286E-03
             175            1150     44.9437E-03     44.8738E-03
             175            1196     42.5421E-03     43.5040E-03
             175            1197     46.4996E-03     48.0169E-03
             176            1150     44.9437E-03     44.8738E-03
             176            1151     47.9890E-03     46.8055E-03
             176            1197     46.4996E-03     48.0169E-03
             176            1198     51.6093E-03     51.4738E-03
             177            1151     47.9890E-03     46.8055E-03
             177            1152     49.6708E-03     51.9142E-03
             177            1198     51.6093E-03     51.4738E-03
             177            1199     54.0729E-03     59.7634E-03
             178            1152     49.6708E-03     51.9142E-03
             178            1153     57.8089E-03     53.2967E-03
             178            1199     54.0729E-03     59.7634E-03
             178            1200     66.2700E-03     62.4624E-03
             179            1153     57.8089E-03     53.2967E-03
             179            1154     58.6538E-03     56.1995E-03
             179            1200     66.2700E-03     62.4624E-03
             179            1201     68.2373E-03     67.5538E-03
             180            1154     58.6538E-03     56.1995E-03
             180            1155     50.4044E-03     60.0008E-03
             180            1201     68.2373E-03     67.5538E-03
             180            1202     58.9875E-03     74.4774E-03
             181            1155     50.4044E-03     60.0008E-03
             181            1156     54.7409E-03     55.8553E-03
             181            1202     58.9875E-03     74.4774E-03
             181            1203     66.6419E-03     67.5178E-03
             182            1156     54.7409E-03     55.8553E-03
             182            1157     57.6671E-03     57.2258E-03
             182            1203     66.6419E-03     67.5178E-03
             182            1204     67.6581E-03     66.9400E-03
             183            1157     57.6671E-03     57.2258E-03
             183            1158     56.4485E-03     59.7548E-03
             183            1204     67.6581E-03     66.9400E-03
             183            1205     64.2757E-03     69.3984E-03
             184            1158     56.4485E-03     59.7548E-03
             184            1159     59.5352E-03     59.4203E-03
             184            1205     64.2757E-03     69.3984E-03
             184            1206     68.7658E-03     69.7336E-03
             185            1159     59.5352E-03     59.4203E-03
             185            1160     61.3498E-03     62.2027E-03
             185            1206     68.7658E-03     69.7336E-03
             185            1207     70.9626E-03     74.5036E-03
             186            1160     61.3498E-03     62.2027E-03
             186            1161     64.6491E-03     64.8870E-03
             186            1207     70.9626E-03     74.5036E-03
             186            1208     75.4416E-03     78.8967E-03
             187            1161     64.6491E-03     64.8870E-03
             187            1162     68.7015E-03     66.8091E-03
             187            1208     75.4416E-03     78.8967E-03
             187            1209     81.4655E-03     81.8765E-03
             188            1162     68.7015E-03     66.8091E-03
             188            1163     70.1157E-03     74.0348E-03
             188            1209     81.4655E-03     81.8765E-03
             188            1210     82.8559E-03     92.0901E-03
             189            1163     70.1157E-03     74.0348E-03
             189            1164     81.6366E-03     75.0298E-03
             189            1210     82.8559E-03     92.0901E-03
             189            1211     99.2699E-03     94.0050E-03
             190            1164     81.6366E-03     75.0298E-03
             190            1165     81.7439E-03     78.4675E-03
             190            1211     99.2699E-03     94.0050E-03
             190            1212     101.099E-03     100.204E-03
             191            1165     81.7439E-03     78.4675E-03
             191            1166     68.9136E-03     84.8703E-03
             191            1212     101.099E-03     100.204E-03
             191            1213     86.4356E-03     110.992E-03
             192            1166     68.9136E-03     84.8703E-03
             192            1167     77.3128E-03     77.8189E-03
             192            1213     86.4356E-03     110.992E-03
             192            1214     98.8978E-03     99.6391E-03
             193            1167     77.3128E-03     77.8189E-03
             193            1168     80.9808E-03     78.5167E-03
             193            1214     98.8978E-03     99.6391E-03
             193            1215     99.7066E-03     97.3968E-03
             194            1168     80.9808E-03     78.5167E-03
             194            1169     76.5087E-03     81.4362E-03
             194            1215     99.7066E-03     97.3968E-03
             194            1216     91.6584E-03     100.065E-03
             195            1169     76.5087E-03     81.4362E-03
             195            1170     79.8014E-03     79.2146E-03
             195            1216     91.6584E-03     100.065E-03
             195            1217     96.6534E-03     98.0098E-03
             196            1170     79.8014E-03     79.2146E-03
             196            1171     80.9404E-03     82.0742E-03
             196            1217     96.6534E-03     98.0098E-03
             196            1218     97.7503E-03     102.906E-03
             197            1171     80.9404E-03     82.0742E-03
             197            1172     84.0484E-03     84.5760E-03
             197            1218     97.7503E-03     102.906E-03
             197            1219     101.826E-03     106.904E-03
             198            1172     84.0484E-03     84.5760E-03
             198            1173     88.4500E-03     86.0612E-03
             198            1219     101.826E-03     106.904E-03
             198            1220     108.220E-03     109.047E-03
             199            1173     88.4500E-03     86.0612E-03
             199            1174     89.3996E-03     94.6570E-03
             199            1220     108.220E-03     109.047E-03
             199            1221     108.570E-03     120.680E-03
             200            1174     89.3996E-03     94.6570E-03
             200            1175     103.409E-03     95.1430E-03
             200            1221     108.570E-03     120.680E-03
             200            1222     128.428E-03     121.976E-03
             201            1175     103.409E-03     95.1430E-03
             201            1176     102.716E-03     98.8253E-03
             201            1222     128.428E-03     121.976E-03
             201            1223     130.192E-03     129.203E-03
             202            1176     102.716E-03     98.8253E-03
             202            1177     85.4139E-03     105.957E-03
             202            1223     130.192E-03     129.203E-03
             202            1224     109.685E-03     141.508E-03
             203            1177     85.4139E-03     105.957E-03
             203            1178     96.6058E-03     95.4240E-03
             203            1224     109.685E-03     141.508E-03
             203            1225     125.309E-03     124.904E-03
             204            1178     96.6058E-03     95.4240E-03
             204            1179     101.150E-03     96.7711E-03
             204            1225     125.309E-03     124.904E-03
             204            1226     125.960E-03     122.659E-03
             205            1179     101.150E-03     96.7711E-03
             205            1180     95.9994E-03     100.594E-03
             205            1226     125.960E-03     122.659E-03
             205            1227     116.210E-03     126.518E-03
             206            1180     95.9994E-03     100.594E-03
             206            1181     100.930E-03     96.6000E-03
             206            1227     116.210E-03     126.518E-03
             206            1228     123.848E-03     121.499E-03
             207            1181     100.930E-03     96.6000E-03
             207            1182     100.142E-03     105.148E-03
             207            1228     123.848E-03     121.499E-03
             207            1229     121.442E-03     134.094E-03
             208            1182     100.142E-03     105.148E-03
             208            1183     113.423E-03     104.448E-03
             208            1229     121.442E-03     134.094E-03
             208            1230     141.263E-03     134.276E-03
             209            1183     113.423E-03     104.448E-03
             209            1184     111.954E-03     106.930E-03
             209            1230     141.263E-03     134.276E-03
             209            1231     143.240E-03     141.404E-03
             210             106     107.132E-03     113.216E-03
             210             107     130.307E-03     144.661E-03
             210            1184     111.954E-03     106.930E-03
             210            1231     143.240E-03     141.404E-03
             211              48     12.5332E-03     13.0900E-03
             211              49     9.73388E-03     11.1956E-03
             211            1185     24.8685E-03     25.4937E-03
             211            1232     17.6070E-03     18.2357E-03
             212            1185     24.8685E-03     25.4937E-03
             212            1186     24.7486E-03     24.8423E-03
             212            1232     17.6070E-03     18.2357E-03
             212            1233     15.0775E-03     13.2531E-03
             213            1186     24.7486E-03     24.8423E-03
             213            1187     25.2382E-03     24.8754E-03
             213            1233     15.0775E-03     13.2531E-03
             213            1234     15.1314E-03     14.4720E-03
             214            1187     25.2382E-03     24.8754E-03
             214            1188     27.2492E-03     26.5781E-03
             214            1234     15.1314E-03     14.4720E-03
             214            1235     19.6890E-03     19.2055E-03
             215            1188     27.2492E-03     26.5781E-03
             215            1189     29.3125E-03     31.2639E-03
             215            1235     19.6890E-03     19.2055E-03
             215            1236     24.7514E-03     26.8750E-03
             216            1189     29.3125E-03     31.2639E-03
             216            1190     36.3502E-03     34.1318E-03
             216            1236     24.7514E-03     26.8750E-03
             216            1237     34.9697E-03     32.8557E-03
             217            1190     36.3502E-03     34.1318E-03
             217            1191     38.0872E-03     37.9883E-03
             217            1237     34.9697E-03     32.8557E-03
             217            1238     40.4098E-03     40.7172E-03
             218            1191     38.0872E-03     37.9883E-03
             218            1192     34.4714E-03     40.6548E-03
             218            1238     40.4098E-03     40.7172E-03
             218            1239     35.3271E-03     40.6755E-03
             219            1192     34.4714E-03     40.6548E-03
             219            1193     37.2258E-03     38.1150E-03
             219            1239     35.3271E-03     40.6755E-03
             219            1240     34.5309E-03     32.9231E-03
             220            1193     37.2258E-03     38.1150E-03
             220            1194     38.1875E-03     39.0374E-03
             220            1240     34.5309E-03     32.9231E-03
             220            1241     35.6832E-03     35.0003E-03
             221            1194     38.1875E-03     39.0374E-03
             221            1195     39.3467E-03     40.7512E-03
             221            1241     35.6832E-03     35.0003E-03
             221            1242     38.5055E-03     39.1153E-03
             222            1195     39.3467E-03     40.7512E-03
             222            1196     42.5421E-03     43.5040E-03
             222            1242     38.5055E-03     39.1153E-03
             222            1243     43.7109E-03     44.1788E-03
             223            1196     42.5421E-03     43.5040E-03
             223            1197     46.4996E-03     48.0169E-03
             223            1243     43.7109E-03     44.1788E-03
             223            1244     49.0764E-03     50.5745E-03
             224            1197     46.4996E-03     48.0169E-03
             224            1198     51.6093E-03     51.4738E-03
             224            1244     49.0764E-03     50.5745E-03
             224            1245     55.9726E-03     55.5556E-03
             225            1198     51.6093E-03     51.4738E-03
             225            1199     54.0729E-03     59.7634E-03
             225            1245     55.9726E-03     55.5556E-03
             225            1246     59.9195E-03     65.0489E-03
             226            1199     54.0729E-03     59.7634E-03
             226            1200     66.2700E-03     62.4624E-03
             226            1246     59.9195E-03     65.0489E-03
             226            1247     73.0325E-03     69.8438E-03
             227            1200     66.2700E-03     62.4624E-03
             227            1201     68.2373E-03     67.5538E-03
             227            1247     73.0325E-03     69.8438E-03
             227            1248     78.3460E-03     77.8861E-03
             228            1201     68.2373E-03     67.5538E-03
             228            1202     58.9875E-03     74.4774E-03
             228            1248     78.3460E-03     77.8861E-03
             228            1249     68.4891E-03     80.9038E-03
             229            1202     58.9875E-03     74.4774E-03
             229            1203     66.6419E-03     67.5178E-03
             229            1249     68.4891E-03     80.9038E-03
             229            1250     71.5852E-03     69.0794E-03
             230            1203     66.6419E-03     67.5178E-03
             230            1204     67.6581E-03     66.9400E-03
             230            1250     71.5852E-03     69.0794E-03
             230            1251     71.9625E-03     69.9953E-03
             231            1204     67.6581E-03     66.9400E-03
             231            1205     64.2757E-03     69.3984E-03
             231            1251     71.9625E-03     69.9953E-03
             231            1252     70.9888E-03     74.3521E-03
             232            1205     64.2757E-03     69.3984E-03
             232            1206     68.7658E-03     69.7336E-03
             232            1252     70.9888E-03     74.3521E-03
             232            1253     76.9459E-03     77.2303E-03
             233            1206     68.7658E-03     69.7336E-03
             233            1207     70.9626E-03     74.5036E-03
             233            1253     76.9459E-03     77.2303E-03
             233            1254     80.9017E-03     83.1998E-03
             234            1207     70.9626E-03     74.5036E-03
             234            1208     75.4416E-03     78.8967E-03
             234            1254     80.9017E-03     83.1998E-03
             234            1255     86.1640E-03     88.9347E-03
             235            1208     75.4416E-03     78.8967E-03
             235            1209     81.4655E-03     81.8765E-03
             235            1255     86.1640E-03     88.9347E-03
             235            1256     93.2578E-03     92.9516E-03
             236            1209     81.4655E-03     81.8765E-03
             236            1210     82.8559E-03     92.0901E-03
             236            1256     93.2578E-03     92.9516E-03
             236            1257     95.6400E-03     103.410E-03
             237            1210     82.8559E-03     92.0901E-03
             237            1211     99.2699E-03     94.0050E-03
             237            1257     95.6400E-03     103.410E-03
             237            1258     111.526E-03     107.115E-03
             238            1211     99.2699E-03     94.0050E-03
             238            1212     101.099E-03     100.204E-03
             238            1258     111.526E-03     107.115E-03
             238            1259     117.028E-03     115.794E-03
             239            1212     101.099E-03     100.204E-03
             239            1213     86.4356E-03     110.992E-03
             239            1259     117.028E-03     115.794E-03
             239            1260     103.176E-03     122.601E-03
             240            1213     86.4356E-03     110.992E-03
             240            1214     98.8978E-03     99.6391E-03
             240            1260     103.176E-03     122.601E-03
             240            1261     110.276E-03     107.066E-03
             241            1214     98.8978E-03     99.6391E-03
             241            1215     99.7066E-03     97.3968E-03
             241            1261     110.276E-03     107.066E-03
             241            1262     109.564E-03     106.268E-03
             242            1215     99.7066E-03     97.3968E-03
             242            1216     91.6584E-03     100.065E-03
             242            1262     109.564E-03     106.268E-03
             242            1263     104.630E-03     110.592E-03
             243            1216     91.6584E-03     100.065E-03
             243            1217     96.6534E-03     98.0098E-03
             243            1263     104.630E-03     110.592E-03
             243            1264     111.069E-03     111.363E-03
             244            1217     96.6534E-03     98.0098E-03
             244            1218     97.7503E-03     102.906E-03
             244            1264     111.069E-03     111.363E-03
             244            1265     113.878E-03     117.293E-03
             245            1218     97.7503E-03     102.906E-03
             245            1219     101.826E-03     106.904E-03
             245            1265     113.878E-03     117.293E-03
             245            1266     118.601E-03     122.452E-03
             246            1219     101.826E-03     106.904E-03
             246            1220     108.220E-03     109.047E-03
             246            1266     118.601E-03     122.452E-03
             246            1267     125.715E-03     125.510E-03
             247            1220     108.220E-03     109.047E-03
             247            1221     108.570E-03     120.680E-03
             247            1267     125.715E-03     125.510E-03
             247            1268     126.767E-03     136.743E-03
             248            1221     108.570E-03     120.680E-03
             248            1222     128.428E-03     121.976E-03
             248            1268     126.767E-03     136.743E-03
             248            1269     145.087E-03     139.600E-03
             249            1222     128.428E-03     121.976E-03
             249            1223     130.192E-03     129.203E-03
             249            1269     145.087E-03     139.600E-03
             249            1270     150.916E-03     149.011E-03
             250            1223     130.192E-03     129.203E-03
             250            1224     109.685E-03     141.508E-03
             250            1270     150.916E-03     149.011E-03
             250            1271     132.607E-03     158.080E-03
             251            1224     109.685E-03     141.508E-03
             251            1225     125.309E-03     124.904E-03
             251            1271     132.607E-03     158.080E-03
             251            1272     142.349E-03     138.557E-03
             252            1225     125.309E-03     124.904E-03
             252            1226     125.960E-03     122.659E-03
             252            1272     142.349E-03     138.557E-03
             252            1273     141.206E-03     137.205E-03
             253            1226     125.960E-03     122.659E-03
             253            1227     116.210E-03     126.518E-03
             253            1273     141.206E-03     137.205E-03
             253            1274     134.011E-03     142.955E-03
             254            1227     116.210E-03     126.518E-03
             254            1228     123.848E-03     121.499E-03
             254            1274     134.011E-03     142.955E-03
             254            1275     143.366E-03     140.542E-03
             255            1228     123.848E-03     121.499E-03
             255            1229     121.442E-03     134.094E-03
             255            1275     143.366E-03     140.542E-03
             255            1276     141.791E-03     153.224E-03
             256            1229     121.442E-03     134.094E-03
             256            1230     141.263E-03     134.276E-03
             256            1276     141.791E-03     153.224E-03
             256            1277     160.666E-03     154.800E-03
             257            1230     141.263E-03     134.276E-03
             257            1231     143.240E-03     141.404E-03
             257            1277     160.666E-03     154.800E-03
             257            1278     166.786E-03     164.478E-03
             258             107     130.307E-03     144.661E-03
             258             108     151.207E-03     165.040E-03
             258            1231     143.240E-03     141.404E-03
             258            1278     166.786E-03     164.478E-03
             259               3     9.09588E-03     11.4114E-03
             259              49     9.73388E-03     11.1956E-03
             259             155     16.9598E-03     18.1435E-03
             259            1232     17.6070E-03     18.2357E-03
             260             154     15.9666E-03     13.8965E-03
             260             155     16.9598E-03     18.1435E-03
             260            1232     17.6070E-03     18.2357E-03
             260            1233     15.0775E-03     13.2531E-03
             261             153     16.9625E-03     16.4375E-03
             261             154     15.9666E-03     13.8965E-03
             261            1233     15.0775E-03     13.2531E-03
             261            1234     15.1314E-03     14.4720E-03
             262             152     21.9133E-03     21.4147E-03
             262             153     16.9625E-03     16.4375E-03
             262            1234     15.1314E-03     14.4720E-03
             262            1235     19.6890E-03     19.2055E-03
             263             151     27.0962E-03     28.0864E-03
             263             152     21.9133E-03     21.4147E-03
             263            1235     19.6890E-03     19.2055E-03
             263            1236     24.7514E-03     26.8750E-03
             264             150     35.0634E-03     33.7525E-03
             264             151     27.0962E-03     28.0864E-03
             264            1236     24.7514E-03     26.8750E-03
             264            1237     34.9697E-03     32.8557E-03
             265             149     41.4756E-03     42.4390E-03
             265             150     35.0634E-03     33.7525E-03
             265            1237     34.9697E-03     32.8557E-03
             265            1238     40.4098E-03     40.7172E-03
             266             148     36.7254E-03     39.7224E-03
             266             149     41.4756E-03     42.4390E-03
             266            1238     40.4098E-03     40.7172E-03
             266            1239     35.3271E-03     40.6755E-03
             267             147     34.0974E-03     31.9134E-03
             267             148     36.7254E-03     39.7224E-03
             267            1239     35.3271E-03     40.6755E-03
             267            1240     34.5309E-03     32.9231E-03
             268             146     38.5809E-03     37.3524E-03
             268             147     34.0974E-03     31.9134E-03
             268            1240     34.5309E-03     32.9231E-03
             268            1241     35.6832E-03     35.0003E-03
             269             145     43.3774E-03     43.0347E-03
             269             146     38.5809E-03     37.3524E-03
             269            1241     35.6832E-03     35.0003E-03
             269            1242     38.5055E-03     39.1153E-03
             270             144     48.9191E-03     48.6031E-03
             270             145     43.3774E-03     43.0347E-03
             270            1242     38.5055E-03     39.1153E-03
             270            1243     43.7109E-03     44.1788E-03
             271             143     54.1808E-03     54.5826E-03
             271             144     48.9191E-03     48.6031E-03
             271            1243     43.7109E-03     44.1788E-03
             271            1244     49.0764E-03     50.5745E-03
             272             142     60.2638E-03     59.6848E-03
             272             143     54.1808E-03     54.5826E-03
             272            1244     49.0764E-03     50.5745E-03
             272            1245     55.9726E-03     55.5556E-03
             273             141     64.9228E-03     67.1072E-03
             273             142     60.2638E-03     59.6848E-03
             273            1245     55.9726E-03     55.5556E-03
             273            1246     59.9195E-03     65.0489E-03
             274             140     73.6833E-03     71.7765E-03
             274             141     64.9228E-03     67.1072E-03
             274            1246     59.9195E-03     65.0489E-03
             274            1247     73.0325E-03     69.8438E-03
             275             139     79.9220E-03     80.0414E-03
             275             140     73.6833E-03     71.7765E-03
             275            1247     73.0325E-03     69.8438E-03
             275            1248     78.3460E-03     77.8861E-03
             276             138     72.9388E-03     78.0319E-03
             276             139     79.9220E-03     80.0414E-03
             276            1248     78.3460E-03     77.8861E-03
             276            1249     68.4891E-03     80.9038E-03
             277             137     71.4896E-03     67.9810E-03
             277             138     72.9388E-03     78.0319E-03
             277            1249     68.4891E-03     80.9038E-03
             277            1250     71.5852E-03     69.0794E-03
             278             136     75.4183E-03     73.4914E-03
             278             137     71.4896E-03     67.9810E-03
             278            1250     71.5852E-03     69.0794E-03
             278            1251     71.9625E-03     69.9953E-03
             279             135     78.8991E-03     79.2623E-03
             279             136     75.4183E-03     73.4914E-03
             279            1251     71.9625E-03     69.9953E-03
             279            1252     70.9888E-03     74.3521E-03
             280             134     84.2460E-03     83.7853E-03
             280             135     78.8991E-03     79.2623E-03
             280            1252     70.9888E-03     74.3521E-03
             280            1253     76.9459E-03     77.2303E-03
             281             133     89.1311E-03     89.2421E-03
             281             134     84.2460E-03     83.7853E-03
             281            1253     76.9459E-03     77.2303E-03
             281            1254     80.9017E-03     83.1998E-03
             282             132     93.9164E-03     94.6686E-03
             282             133     89.1311E-03     89.2421E-03
             282            1254     80.9017E-03     83.1998E-03
             282            1255     86.1640E-03     88.9347E-03
             283             131     99.7347E-03     98.9932E-03
             283             132     93.9164E-03     94.6686E-03
             283            1255     86.1640E-03     88.9347E-03
             283            1256     93.2578E-03     92.9516E-03
             284             130     103.489E-03     106.525E-03
             284             131     99.7347E-03     98.9932E-03
             284            1256     93.2578E-03     92.9516E-03
             284            1257     95.6400E-03     103.410E-03
             285             129     112.744E-03     110.052E-03
             285             130     103.489E-03     106.525E-03
             285            1257     95.6400E-03     103.410E-03
             285            1258     111.526E-03     107.115E-03
             286             128     118.716E-03     117.847E-03
             286             129     112.744E-03     110.052E-03
             286            1258     111.526E-03     107.115E-03
             286            1259     117.028E-03     115.794E-03
             287             127     110.265E-03     117.831E-03
             287             128     118.716E-03     117.847E-03
             287            1259     117.028E-03     115.794E-03
             287            1260     103.176E-03     122.601E-03
             288             126     110.562E-03     106.173E-03
             288             127     110.265E-03     117.831E-03
             288            1260     103.176E-03     122.601E-03
             288            1261     110.276E-03     107.066E-03
             289             125     113.629E-03     110.871E-03
             289             126     110.562E-03     106.173E-03
             289            1261     110.276E-03     107.066E-03
             289            1262     109.564E-03     106.268E-03
             290             124     115.421E-03     116.650E-03
             290             125     113.629E-03     110.871E-03
             290            1262     109.564E-03     106.268E-03
             290            1263     104.630E-03     110.592E-03
             291             123     120.673E-03     119.986E-03
             291             124     115.421E-03     116.650E-03
             291            1263     104.630E-03     110.592E-03
             291            1264     111.069E-03     111.363E-03
             292             122     124.851E-03     125.204E-03
             292             123     120.673E-03     119.986E-03
             292            1264     111.069E-03     111.363E-03
             292            1265     113.878E-03     117.293E-03
             293             121     129.160E-03     130.100E-03
             293             122     124.851E-03     125.204E-03
             293            1265     113.878E-03     117.293E-03
             293            1266     118.601E-03     122.452E-03
             294             120     134.618E-03     133.708E-03
             294             121     129.160E-03     130.100E-03
             294            1266     118.601E-03     122.452E-03
             294            1267     125.715E-03     125.510E-03
             295             119     137.551E-03     141.239E-03
             295             120     134.618E-03     133.708E-03
             295            1267     125.715E-03     125.510E-03
             295            1268     126.767E-03     136.743E-03
             296             118     147.182E-03     143.742E-03
             296             119     137.551E-03     141.239E-03
             296            1268     126.767E-03     136.743E-03
             296            1269     145.087E-03     139.600E-03
             297             117     152.905E-03     151.108E-03
             297             118     147.182E-03     143.742E-03
             297            1269     145.087E-03     139.600E-03
             297            1270     150.916E-03     149.011E-03
             298             116     142.652E-03     152.547E-03
             298             117     152.905E-03     151.108E-03
             298            1270     150.916E-03     149.011E-03
             298            1271     132.607E-03     158.080E-03
             299             115     143.972E-03     139.352E-03
             299             116     142.652E-03     152.547E-03
             299            1271     132.607E-03     158.080E-03
             299            1272     142.349E-03     138.557E-03
             300             114     147.115E-03     143.738E-03
             300             115     143.972E-03     139.352E-03
             300            1272     142.349E-03     138.557E-03
             300            1273     141.206E-03     137.205E-03
             301             113     147.519E-03     150.635E-03
             301             114     147.115E-03     143.738E-03
             301            1273     141.206E-03     137.205E-03
             301            1274     134.011E-03     142.955E-03
             302             112     154.105E-03     151.933E-03
             302             113     147.519E-03     150.635E-03
             302            1274     134.011E-03     142.955E-03
             302            1275     143.366E-03     140.542E-03
             303             111     155.737E-03     160.232E-03
             303             112     154.105E-03     151.933E-03
             303            1275     143.366E-03     140.542E-03
             303            1276     141.791E-03     153.224E-03
             304             110     165.452E-03     161.503E-03
             304             111     155.737E-03     160.232E-03
             304            1276     141.791E-03     153.224E-03
             304            1277     160.666E-03     154.800E-03
             305             109     170.588E-03     168.397E-03
             305             110     165.452E-03     161.503E-03
             305            1277     160.666E-03     154.800E-03
             305            1278     166.786E-03     164.478E-03
             306               6     160.473E-03     167.009E-03
             306             108     151.207E-03     165.040E-03
             306             109     170.588E-03     168.397E-03
             306            1278     166.786E-03     164.478E-03
             307               5     81.3544E-03     84.2952E-03
             307             104     71.5280E-03     70.3047E-03
             307             156     112.610E-03     114.677E-03
             307            1279     93.3064E-03     96.2333E-03
             308             156     112.610E-03     114.677E-03
             308             157     106.744E-03     111.306E-03
             308            1279     93.3064E-03     96.2333E-03
             308            1280     88.3136E-03     94.1063E-03
             309             157     106.744E-03     111.306E-03
             309             158     111.477E-03     116.632E-03
             309            1280     88.3136E-03     94.1063E-03
             309            1281     95.8971E-03     97.9023E-03
             310             158     111.477E-03     116.632E-03
             310             159     110.417E-03     112.653E-03
             310            1281     95.8971E-03     97.9023E-03
             310            1282     98.2831E-03     103.562E-03
             311             159     110.417E-03     112.653E-03
             311             160     113.697E-03     114.009E-03
             311            1282     98.2831E-03     103.562E-03
             311            1283     110.258E-03     108.536E-03
             312             160     113.697E-03     114.009E-03
             312             161     113.761E-03     112.926E-03
             312            1283     110.258E-03     108.536E-03
             312            1284     112.355E-03     112.842E-03
             313               7     79.7885E-03     80.1710E-03
             313             161     113.761E-03     112.926E-03
             313             162     87.5148E-03     99.5924E-03
             313            1284     112.355E-03     112.842E-03
             314             104     71.5280E-03     70.3047E-03
             314             105     84.0802E-03     84.1020E-03
             314            1279     93.3064E-03     96.2333E-03
             314            1285     95.1154E-03     98.7126E-03
             315            1279     93.3064E-03     96.2333E-03
             315            1280     88.3136E-03     94.1063E-03
             315            1285     95.1154E-03     98.7126E-03
             315            1286     90.9370E-03     99.8862E-03
             316            1280     88.3136E-03     94.1063E-03
             316            1281     95.8971E-03     97.9023E-03
             316            1286     90.9370E-03     99.8862E-03
             316            1287     104.313E-03     101.197E-03
             317            1281     95.8971E-03     97.9023E-03
             317            1282     98.2831E-03     103.562E-03
             317            1287     104.313E-03     101.197E-03
             317            1288     111.953E-03     118.017E-03
             318            1282     98.2831E-03     103.562E-03
             318            1283     110.258E-03     108.536E-03
             318            1288     111.953E-03     118.017E-03
             318            1289     129.624E-03     125.472E-03
             319            1283     110.258E-03     108.536E-03
             319            1284     112.355E-03     112.842E-03
             319            1289     129.624E-03     125.472E-03
             319            1290     131.795E-03     130.361E-03
             320             162     87.5148E-03     99.5924E-03
             320             163     109.432E-03     132.787E-03
             320            1284     112.355E-03     112.842E-03
             320            1290     131.795E-03     130.361E-03
             321             105     84.0802E-03     84.1020E-03
             321             106     107.132E-03     113.216E-03
             321            1285     95.1154E-03     98.7126E-03
             321            1291     113.411E-03     116.290E-03
             322            1285     95.1154E-03     98.7126E-03
             322            1286     90.9370E-03     99.8862E-03
             322            1291     113.411E-03     116.290E-03
             322            1292     110.143E-03     124.993E-03
             323            1286     90.9370E-03     99.8862E-03
             323            1287     104.313E-03     101.197E-03
             323            1292     110.143E-03     124.993E-03
             323            1293     129.424E-03     123.482E-03
             324            1287     104.313E-03     101.197E-03
             324            1288     111.953E-03     118.017E-03
             324            1293     129.424E-03     123.482E-03
             324            1294     139.157E-03     142.664E-03
             325            1288     111.953E-03     118.017E-03
             325            1289     129.624E-03     125.472E-03
             325            1294     139.157E-03     142.664E-03
             325            1295     157.537E-03     148.749E-03
             326            1289     129.624E-03     125.472E-03
             326            1290     131.795E-03     130.361E-03
             326            1295     157.537E-03     148.749E-03
             326            1296     159.819E-03     153.858E-03
             327             163     109.432E-03     132.787E-03
             327             164     135.349E-03     171.264E-03
             327            1290     131.795E-03     130.361E-03
             327            1296     159.819E-03     153.858E-03
             328             106     107.132E-03     113.216E-03
             328             107     130.307E-03     144.661E-03
             328            1291     113.411E-03     116.290E-03
             328            1297     135.346E-03     138.021E-03
             329            1291     113.411E-03     116.290E-03
             329            1292     110.143E-03     124.993E-03
             329            1297     135.346E-03     138.021E-03
             329            1298     133.817E-03     155.114E-03
             330            1292     110.143E-03     124.993E-03
             330            1293     129.424E-03     123.482E-03
             330            1298     133.817E-03     155.114E-03
             330            1299     158.701E-03     152.285E-03
             331            1293     129.424E-03     123.482E-03
             331            1294     139.157E-03     142.664E-03
             331            1299     158.701E-03     152.285E-03
             331            1300     162.228E-03     167.468E-03
             332            1294     139.157E-03     142.664E-03
             332            1295     157.537E-03     148.749E-03
             332            1300     162.228E-03     167.468E-03
             332            1301     177.562E-03     172.139E-03
             333            1295     157.537E-03     148.749E-03
             333            1296     159.819E-03     153.858E-03
             333            1301     177.562E-03     172.139E-03
             333            1302     183.732E-03     178.047E-03
             334             164     135.349E-03     171.264E-03
             334             165     157.400E-03     207.220E-03
             334            1296     159.819E-03     153.858E-03
             334            1302     183.732E-03     178.047E-03
             335             107     130.307E-03     144.661E-03
             335             108     151.207E-03     165.040E-03
             335            1297     135.346E-03     138.021E-03
             335            1303     152.086E-03     154.872E-03
             336            1297     135.346E-03     138.021E-03
             336            1298     133.817E-03     155.114E-03
             336            1303     152.086E-03     154.872E-03
             336            1304     155.504E-03     174.120E-03
             337            1298     133.817E-03     155.114E-03
             337            1299     158.701E-03     152.285E-03
             337            1304     155.504E-03     174.120E-03
             337            1305     179.132E-03     171.089E-03
             338            1299     158.701E-03     152.285E-03
             338            1300     162.228E-03     167.468E-03
             338            1305     179.132E-03     171.089E-03
             338            1306     178.238E-03     182.208E-03
             339            1300     162.228E-03     167.468E-03
             339            1301     177.562E-03     172.139E-03
             339            1306     178.238E-03     182.208E-03
             339            1307     190.917E-03     187.876E-03
             340            1301     177.562E-03     172.139E-03
             340            1302     183.732E-03     178.047E-03
             340            1307     190.917E-03     187.876E-03
             340            1308     202.590E-03     196.020E-03
             341             165     157.400E-03     207.220E-03
             341             166     185.968E-03     228.174E-03
             341            1302     183.732E-03     178.047E-03
             341            1308     202.590E-03     196.020E-03
             342               6     160.473E-03     167.009E-03
             342             108     151.207E-03     165.040E-03
             342             172     159.108E-03     161.169E-03
             342            1303     152.086E-03     154.872E-03
             343             171     166.840E-03     175.790E-03
             343             172     159.108E-03     161.169E-03
             343            1303     152.086E-03     154.872E-03
             343            1304     155.504E-03     174.120E-03
             344             170     182.105E-03     177.073E-03
             344             171     166.840E-03     175.790E-03
             344            1304     155.504E-03     174.120E-03
             344            1305     179.132E-03     171.089E-03
             345             169     185.590E-03     186.541E-03
             345             170     182.105E-03     177.073E-03
             345            1305     179.132E-03     171.089E-03
             345            1306     178.238E-03     182.208E-03
             346             168     194.606E-03     191.988E-03
             346             169     185.590E-03     186.541E-03
             346            1306     178.238E-03     182.208E-03
             346            1307     190.917E-03     187.876E-03
             347             167     203.411E-03     198.531E-03
             347             168     194.606E-03     191.988E-03
             347            1307     190.917E-03     187.876E-03
             347            1308     202.590E-03     196.020E-03
             348               8     201.785E-03     220.921E-03
             348             166     185.968E-03     228.174E-03
             348             167     203.411E-03     198.531E-03
             348            1308     202.590E-03     196.020E-03
             349               7     79.7885E-03     80.1710E-03
             349             162     87.5148E-03     99.5924E-03
             349             173     53.3894E-03     50.4953E-03
             349            1309     80.2375E-03     77.7130E-03
             350             173     53.3894E-03     50.4953E-03
             350             174     53.4805E-03     53.2168E-03
             350            1309     80.2375E-03     77.7130E-03
             350            1310     81.6643E-03     79.2558E-03
             351             174     53.4805E-03     53.2168E-03
             351             175     51.1952E-03     53.1777E-03
             351            1310     81.6643E-03     79.2558E-03
             351            1311     73.9352E-03     80.5594E-03
             352             175     51.1952E-03     53.1777E-03
             352             176     52.4636E-03     51.6291E-03
             352            1311     73.9352E-03     80.5594E-03
             352            1312     76.2948E-03     73.7754E-03
             353             176     52.4636E-03     51.6291E-03
             353             177     51.3626E-03     53.2349E-03
             353            1312     76.2948E-03     73.7754E-03
             353            1313     72.1397E-03     71.2300E-03
             354             177     51.3626E-03     53.2349E-03
             354             178     43.8699E-03     46.3684E-03
             354            1313     72.1397E-03     71.2300E-03
             354            1314     62.6706E-03     66.4404E-03
             355               9     41.3144E-03     41.0548E-03
             355             178     43.8699E-03     46.3684E-03
             355             179     61.1394E-03     64.6441E-03
             355            1314     62.6706E-03     66.4404E-03
             356             162     87.5148E-03     99.5924E-03
             356             163     109.432E-03     132.787E-03
             356            1309     80.2375E-03     77.7130E-03
             356            1315     120.363E-03     116.252E-03
             357            1309     80.2375E-03     77.7130E-03
             357            1310     81.6643E-03     79.2558E-03
             357            1315     120.363E-03     116.252E-03
             357            1316     124.215E-03     116.832E-03
             358            1310     81.6643E-03     79.2558E-03
             358            1311     73.9352E-03     80.5594E-03
             358            1316     124.215E-03     116.832E-03
             358            1317     109.725E-03     120.325E-03
             359            1311     73.9352E-03     80.5594E-03
             359            1312     76.2948E-03     73.7754E-03
             359            1317     109.725E-03     120.325E-03
             359            1318     114.039E-03     108.465E-03
             360            1312     76.2948E-03     73.7754E-03
             360            1313     72.1397E-03     71.2300E-03
             360            1318     114.039E-03     108.465E-03
             360            1319     105.561E-03     101.836E-03
             361            1313     72.1397E-03     71.2300E-03
             361            1314     62.6706E-03     66.4404E-03
             361            1319     105.561E-03     101.836E-03
             361            1320     92.2002E-03     98.6375E-03
             362             179     61.1394E-03     64.6441E-03
             362             180     91.9067E-03     101.014E-03
             362            1314     62.6706E-03     66.4404E-03
             362            1320     92.2002E-03     98.6375E-03
             363             163     109.432E-03     132.787E-03
             363             164     135.349E-03     171.264E-03
             363            1315     120.363E-03     116.252E-03
             363            1321     158.626E-03     152.465E-03
             364            1315     120.363E-03     116.252E-03
             364            1316     124.215E-03     116.832E-03
             364            1321     158.626E-03     152.465E-03
             364            1322     162.284E-03     147.523E-03
             365            1316     124.215E-03     116.832E-03
             365            1317     109.725E-03     120.325E-03
             365            1322     162.284E-03     147.523E-03
             365            1323     139.796E-03     154.000E-03
             366            1317     109.725E-03     120.325E-03
             366            1318     114.039E-03     108.465E-03
             366            1323     139.796E-03     154.000E-03
             366            1324     149.086E-03     138.977E-03
             367            1318     114.039E-03     108.465E-03
             367            1319     105.561E-03     101.836E-03
             367            1324     149.086E-03     138.977E-03
             367            1325     139.135E-03     134.355E-03
             368            1319     105.561E-03     101.836E-03
             368            1320     92.2002E-03     98.6375E-03
             368            1325     139.135E-03     134.355E-03
             368            1326     120.553E-03     132.712E-03
             369             180     91.9067E-03     101.014E-03
             369             181     121.412E-03     138.304E-03
             369            1320     92.2002E-03     98.6375E-03
             369            1326     120.553E-03     132.712E-03
             370             164     135.349E-03     171.264E-03
             370             165     157.400E-03     207.220E-03
             370            1321     158.626E-03     152.465E-03
             370            1327     188.476E-03     185.598E-03
             371            1321     158.626E-03     152.465E-03
             371            1322     162.284E-03     147.523E-03
             371            1327     188.476E-03     185.598E-03
             371            1328     188.552E-03     174.403E-03
             372            1322     162.284E-03     147.523E-03
             372            1323     139.796E-03     154.000E-03
             372            1328     188.552E-03     174.403E-03
             372            1329     157.788E-03     180.240E-03
             373            1323     139.796E-03     154.000E-03
             373            1324     149.086E-03     138.977E-03
             373            1329     157.788E-03     180.240E-03
             373            1330     173.208E-03     163.167E-03
             374            1324     149.086E-03     138.977E-03
             374            1325     139.135E-03     134.355E-03
             374            1330     173.208E-03     163.167E-03
             374            1331     166.084E-03     163.556E-03
             375            1325     139.135E-03     134.355E-03
             375            1326     120.553E-03     132.712E-03
             375            1331     166.084E-03     163.556E-03
             375            1332     144.030E-03     161.886E-03
             376             181     121.412E-03     138.304E-03
             376             182     144.681E-03     168.594E-03
             376            1326     120.553E-03     132.712E-03
             376            1332     144.030E-03     161.886E-03
             377             165     157.400E-03     207.220E-03
             377             166     185.968E-03     228.174E-03
             377            1327     188.476E-03     185.598E-03
             377            1333     212.027E-03     208.845E-03
             378            1327     188.476E-03     185.598E-03
             378            1328     188.552E-03     174.403E-03
             378            1333     212.027E-03     208.845E-03
             378            1334     204.807E-03     193.073E-03
             379            1328     188.552E-03     174.403E-03
             379            1329     157.788E-03     180.240E-03
             379            1334     204.807E-03     193.073E-03
             379            1335     174.783E-03     194.076E-03
             380            1329     157.788E-03     180.240E-03
             380            1330     173.208E-03     163.167E-03
             380            1335     174.783E-03     194.076E-03
             380            1336     185.696E-03     176.114E-03
             381            1330     173.208E-03     163.167E-03
             381            1331     166.084E-03     163.556E-03
             381            1336     185.696E-03     176.114E-03
             381            1337     179.565E-03     176.006E-03
             382            1331     166.084E-03     163.556E-03
             382            1332     144.030E-03     161.886E-03
             382            1337     179.565E-03     176.006E-03
             382            1338     160.684E-03     174.796E-03
             383             182     144.681E-03     168.594E-03
             383             183     165.848E-03     186.243E-03
             383            1332     144.030E-03     161.886E-03
             383            1338     160.684E-03     174.796E-03
             384               8     201.785E-03     220.921E-03
             384             166     185.968E-03     228.174E-03
             384             189     213.395E-03     210.657E-03
             384            1333     212.027E-03     208.845E-03
             385             188     204.976E-03     198.069E-03
             385             189     213.395E-03     210.657E-03
             385            1333     212.027E-03     208.845E-03
             385            1334     204.807E-03     193.073E-03
             386             187     188.330E-03     196.005E-03
             386             188     204.976E-03     198.069E-03
             386            1334     204.807E-03     193.073E-03
             386            1335     174.783E-03     194.076E-03
             387             186     186.907E-03     180.920E-03
             387             187     188.330E-03     196.005E-03
             387            1335     174.783E-03     194.076E-03
             387            1336     185.696E-03     176.114E-03
             388             185     178.080E-03     174.105E-03
             388             186     186.907E-03     180.920E-03
             388            1336     185.696E-03     176.114E-03
             388            1337     179.565E-03     176.006E-03
             389             184     166.300E-03     171.460E-03
             389             185     178.080E-03     174.105E-03
             389            1337     179.565E-03     176.006E-03
             389            1338     160.684E-03     174.796E-03
             390              10     173.709E-03     184.196E-03
             390             183     165.848E-03     186.243E-03
             390             184     166.300E-03     171.460E-03
             390            1338     160.684E-03     174.796E-03
             391              11     1.24858E-03     1.22942E-03
             391             190     1.25844E-03     1.23630E-03
             391             211     1.19163E-03     1.17322E-03
             391            1339     1.20090E-03     1.18065E-03
             392             190     1.25844E-03     1.23630E-03
             392             191     1.26308E-03     1.24706E-03
             392            1339     1.20090E-03     1.18065E-03
             392            1340     1.20933E-03     1.19356E-03
             393             191     1.26308E-03     1.24706E-03
             393             192     1.25977E-03     1.24672E-03
             393            1340     1.20933E-03     1.19356E-03
             393            1341     1.21034E-03     1.19353E-03
             394             192     1.25977E-03     1.24672E-03
             394             193     1.25270E-03     1.24822E-03
             394            1341     1.21034E-03     1.19353E-03
             394            1342     1.21194E-03     1.21253E-03
             395             193     1.25270E-03     1.24822E-03
             395             194     1.26512E-03     1.25198E-03
             395            1342     1.21194E-03     1.21253E-03
             395            1343     1.24458E-03     1.22913E-03
             396             194     1.26512E-03     1.25198E-03
             396             195     1.26273E-03     1.22606E-03
             396            1343     1.24458E-03     1.22913E-03
             396            1344     1.24506E-03     1.21331E-03
             397              12     24.5732E-03     24.3805E-03
             397             195     1.26273E-03     1.22606E-03
             397             196     24.3389E-03     24.1336E-03
             397            1344     1.24506E-03     1.21331E-03
             398             210     1.02516E-03     1.01091E-03
             398             211     1.19163E-03     1.17322E-03
             398            1339     1.20090E-03     1.18065E-03
             398            1345     1.03362E-03     1.01919E-03
             399            1339     1.20090E-03     1.18065E-03
             399            1340     1.20933E-03     1.19356E-03
             399            1345     1.03362E-03     1.01919E-03
             399            1346     1.04501E-03     1.03565E-03
             400            1340     1.20933E-03     1.19356E-03
             400            1341     1.21034E-03     1.19353E-03
             400            1346     1.04501E-03     1.03565E-03
             400            1347     1.06423E-03     1.05730E-03
             401            1341     1.21034E-03     1.19353E-03
             401            1342     1.21194E-03     1.21253E-03
             401            1347     1.06423E-03     1.05730E-03
             401            1348     1.09121E-03     1.11103E-03
             402            1342     1.21194E-03     1.21253E-03
             402            1343     1.24458E-03     1.22913E-03
             402            1348     1.09121E-03     1.11103E-03
             402            1349     1.19025E-03     1.14196E-03
             403            1343     1.24458E-03     1.22913E-03
             403            1344     1.24506E-03     1.21331E-03
             403            1349     1.19025E-03     1.14196E-03
             403            1350     1.21157E-03     1.17673E-03
             404             196     24.3389E-03     24.1336E-03
             404             197     22.6143E-03     22.4736E-03
             404            1344     1.24506E-03     1.21331E-03
             404            1350     1.21157E-03     1.17673E-03
             405             209     745.703E-06     755.611E-06
             405             210     1.02516E-03     1.01091E-03
             405            1345     1.03362E-03     1.01919E-03
             405            1351     750.161E-06     768.366E-06
             406            1345     1.03362E-03     1.01919E-03
             406            1346     1.04501E-03     1.03565E-03
             406            1351     750.161E-06     768.366E-06
             406            1352     786.730E-06     797.125E-06
             407            1346     1.04501E-03     1.03565E-03
             407            1347     1.06423E-03     1.05730E-03
             407            1352     786.730E-06     797.125E-06
             407            1353     848.675E-06     840.534E-06
             408            1347     1.06423E-03     1.05730E-03
             408            1348     1.09121E-03     1.11103E-03
             408            1353     848.675E-06     840.534E-06
             408            1354     910.024E-06     956.668E-06
             409            1348     1.09121E-03     1.11103E-03
             409            1349     1.19025E-03     1.14196E-03
             409            1354     910.024E-06     956.668E-06
             409            1355     1.10499E-03     1.00747E-03
             410            1349     1.19025E-03     1.14196E-03
             410            1350     1.21157E-03     1.17673E-03
             410            1355     1.10499E-03     1.00747E-03
             410            1356     1.15928E-03     1.12701E-03
             411             197     22.6143E-03     22.4736E-03
             411             198     19.1937E-03     19.1481E-03
             411            1350     1.21157E-03     1.17673E-03
             411            1356     1.15928E-03     1.12701E-03
             412             208     415.520E-06     483.704E-06
             412             209     745.703E-06     755.611E-06
             412            1351     750.161E-06     768.366E-06
             412            1357     428.578E-06     468.565E-06
             413            1351     750.161E-06     768.366E-06
             413            1352     786.730E-06     797.125E-06
             413            1357     428.578E-06     468.565E-06
             413            1358     481.522E-06     463.262E-06
             414            1352     786.730E-06     797.125E-06
             414            1353     848.675E-06     840.534E-06
             414            1358     481.522E-06     463.262E-06
             414            1359     594.298E-06     551.601E-06
             415            1353     848.675E-06     840.534E-06
             415            1354     910.024E-06     956.668E-06
             415            1359     594.298E-06     551.601E-06
             415            1360     725.044E-06     819.612E-06
             416            1354     910.024E-06     956.668E-06
             416            1355     1.10499E-03     1.00747E-03
             416            1360     725.044E-06     819.612E-06
             416            1361     1.06726E-03     963.708E-06
             417            1355     1.10499E-03     1.00747E-03
             417            1356     1.15928E-03     1.12701E-03
             417            1361     1.06726E-03     963.708E-06
             417            1362     1.17267E-03     1.16877E-03
             418             198     19.1937E-03     19.1481E-03
             418             199     14.6158E-03     14.5971E-03
             418            1356     1.15928E-03     1.12701E-03
             418            1362     1.17267E-03     1.16877E-03
             419             207     367.715E-06     524.067E-06
             419             208     415.520E-06     483.704E-06
             419            1357     428.578E-06     468.565E-06
             419            1363     366.886E-06     431.338E-06
             420            1357     428.578E-06     468.565E-06
             420            1358     481.522E-06     463.262E-06
             420            1363     366.886E-06     431.338E-06
             420            1364     387.325E-06     357.941E-06
             421            1358     481.522E-06     463.262E-06
             421            1359     594.298E-06     551.601E-06
             421            1364     387.325E-06     357.941E-06
             421            1365     543.870E-06     499.606E-06
             422            1359     594.298E-06     551.601E-06
             422            1360     725.044E-06     819.612E-06
             422            1365     543.870E-06     499.606E-06
             422            1366     750.463E-06     855.553E-06
             423            1360     725.044E-06     819.612E-06
             423            1361     1.06726E-03     963.708E-06
             423            1366     750.463E-06     855.553E-06
             423            1367     1.18999E-03     1.10962E-03
             424            1361     1.06726E-03     963.708E-06
             424            1362     1.17267E-03     1.16877E-03
             424            1367     1.18999E-03     1.10962E-03
             424            1368     1.43961E-03     1.44017E-03
             425             199     14.6158E-03     14.5971E-03
             425             200     9.03472E-03     11.1247E-03
             425            1362     1.17267E-03     1.16877E-03
             425            1368     1.43961E-03     1.44017E-03
             426              14     387.561E-06     595.394E-06
             426             206     344.888E-06     439.307E-06
             426             207     367.715E-06     524.067E-06
             426            1363     366.886E-06     431.338E-06
             427             205     362.567E-06     348.872E-06
             427             206     344.888E-06     439.307E-06
             427            1363     366.886E-06     431.338E-06
             427            1364     387.325E-06     357.941E-06
             428             204     565.285E-06     538.913E-06
             428             205     362.567E-06     348.872E-06
             428            1364     387.325E-06     357.941E-06
             428            1365     543.870E-06     499.606E-06
             429             203     804.386E-06     858.428E-06
             429             204     565.285E-06     538.913E-06
             429            1365     543.870E-06     499.606E-06
             429            1366     750.463E-06     855.553E-06
             430             202     1.17882E-03     1.13595E-03
             430             203     804.386E-06     858.428E-06
             430            1366     750.463E-06     855.553E-06
             430            1367     1.18999E-03     1.10962E-03
             431             201     1.49944E-03     1.52629E-03
             431             202     1.17882E-03     1.13595E-03
             431            1367     1.18999E-03     1.10962E-03
             431            1368     1.43961E-03     1.44017E-03
             432              13     6.18179E-03     9.73074E-03
             432             200     9.03472E-03     11.1247E-03
             432             201     1.49944E-03     1.52629E-03
             432            1368     1.43961E-03     1.44017E-03
             433               9     41.3144E-03     41.0548E-03
             433             179     61.1394E-03     64.6441E-03
             433             212     48.8378E-03     47.0473E-03
             433            1369     70.5720E-03     67.6383E-03
             434             212     48.8378E-03     47.0473E-03
             434             213     48.7999E-03     50.0831E-03
             434            1369     70.5720E-03     67.6383E-03
             434            1370     72.3131E-03     70.1731E-03
             435             213     48.7999E-03     50.0831E-03
             435             214     46.7777E-03     49.9560E-03
             435            1370     72.3131E-03     70.1731E-03
             435            1371     67.1683E-03     70.9489E-03
             436             214     46.7777E-03     49.9560E-03
             436             215     48.2431E-03     49.1325E-03
             436            1371     67.1683E-03     70.9489E-03
             436            1372     67.8951E-03     67.5326E-03
             437             215     48.2431E-03     49.1325E-03
             437             216     48.4582E-03     48.5480E-03
             437            1372     67.8951E-03     67.5326E-03
             437            1373     66.3282E-03     66.3436E-03
             438             216     48.4582E-03     48.5480E-03
             438             217     48.4835E-03     47.4282E-03
             438            1373     66.3282E-03     66.3436E-03
             438            1374     64.0770E-03     63.7640E-03
             439             217     48.4835E-03     47.4282E-03
             439             218     48.6095E-03     46.5782E-03
             439            1374     64.0770E-03     63.7640E-03
             439            1375     61.6770E-03     61.8169E-03
             440             218     48.6095E-03     46.5782E-03
             440             219     47.9724E-03     45.4341E-03
             440            1375     61.6770E-03     61.8169E-03
             440            1376     60.4634E-03     58.0122E-03
             441             219     47.9724E-03     45.4341E-03
             441             220     46.7762E-03     46.3156E-03
             441            1376     60.4634E-03     58.0122E-03
             441            1377     57.1232E-03     55.6324E-03
             442             220     46.7762E-03     46.3156E-03
             442             221     46.2955E-03     46.5398E-03
             442            1377     57.1232E-03     55.6324E-03
             442            1378     54.4763E-03     58.1280E-03
             443             221     46.2955E-03     46.5398E-03
             443             222     48.4922E-03     46.9871E-03
             443            1378     54.4763E-03     58.1280E-03
             443            1379     60.8777E-03     58.6361E-03
             444             222     48.4922E-03     46.9871E-03
             444             223     48.3079E-03     49.2874E-03
             444            1379     60.8777E-03     58.6361E-03
             444            1380     61.6622E-03     60.2108E-03
             445             223     48.3079E-03     49.2874E-03
             445             224     46.7472E-03     48.9900E-03
             445            1380     61.6622E-03     60.2108E-03
             445            1381     57.4548E-03     60.1261E-03
             446             224     46.7472E-03     48.9900E-03
             446             225     47.7277E-03     48.2646E-03
             446            1381     57.4548E-03     60.1261E-03
             446            1382     57.5494E-03     57.2011E-03
             447             225     47.7277E-03     48.2646E-03
             447             226     47.8465E-03     47.7835E-03
             447            1382     57.5494E-03     57.2011E-03
             447            1383     55.9812E-03     56.0017E-03
             448             226     47.8465E-03     47.7835E-03
             448             227     47.8726E-03     46.9893E-03
             448            1383     55.9812E-03     56.0017E-03
             448            1384     54.0961E-03     53.9274E-03
             449             227     47.8726E-03     46.9893E-03
             449             228     48.0297E-03     46.4649E-03
             449            1384     54.0961E-03     53.9274E-03
             449            1385     52.4490E-03     52.0916E-03
             450             228     48.0297E-03     46.4649E-03
             450             229     47.5976E-03     45.8534E-03
             450            1385     52.4490E-03     52.0916E-03
             450            1386     51.0498E-03     49.6612E-03
             451             229     47.5976E-03     45.8534E-03
             451             230     46.8849E-03     46.3829E-03
             451            1386     51.0498E-03     49.6612E-03
             451            1387     49.0561E-03     48.1735E-03
             452             230     46.8849E-03     46.3829E-03
             452             231     47.3163E-03     46.9594E-03
             452            1387     49.0561E-03     48.1735E-03
             452            1388     48.8238E-03     50.3252E-03
             453             231     47.3163E-03     46.9594E-03
             453             232     49.2711E-03     47.9732E-03
             453            1388     48.8238E-03     50.3252E-03
             453            1389     53.2640E-03     51.6872E-03
             454             232     49.2711E-03     47.9732E-03
             454             233     49.0435E-03     49.5301E-03
             454            1389     53.2640E-03     51.6872E-03
             454            1390     53.3043E-03     52.3349E-03
             455             233     49.0435E-03     49.5301E-03
             455             234     47.9037E-03     49.2231E-03
             455            1390     53.3043E-03     52.3349E-03
             455            1391     50.2813E-03     51.6633E-03
             456             234     47.9037E-03     49.2231E-03
             456             235     48.3607E-03     48.6844E-03
             456            1391     50.2813E-03     51.6633E-03
             456            1392     49.9411E-03     49.6098E-03
             457             235     48.3607E-03     48.6844E-03
             457             236     48.2732E-03     48.3945E-03
             457            1392     49.9411E-03     49.6098E-03
             457            1393     48.7330E-03     48.7748E-03
             458             236     48.2732E-03     48.3945E-03
             458             237     48.2686E-03     47.8649E-03
             458            1393     48.7330E-03     48.7748E-03
             458            1394     47.5423E-03     47.5968E-03
             459             237     48.2686E-03     47.8649E-03
             459             238     48.3509E-03     47.5208E-03
             459            1394     47.5423E-03     47.5968E-03
             459            1395     46.7481E-03     46.4504E-03
             460             238     48.3509E-03     47.5208E-03
             460             239     48.3143E-03     47.4422E-03
             460            1395     46.7481E-03     46.4504E-03
             460            1396     45.9805E-03     45.5329E-03
             461             239     48.3143E-03     47.4422E-03
             461             240     48.3069E-03     47.3108E-03
             461            1396     45.9805E-03     45.5329E-03
             461            1397     45.4545E-03     44.8315E-03
             462             240     48.3069E-03     47.3108E-03
             462             241     48.0593E-03     47.2499E-03
             462            1397     45.4545E-03     44.8315E-03
             462            1398     44.9038E-03     44.3531E-03
             463             241     48.0593E-03     47.2499E-03
             463             242     47.7882E-03     47.2133E-03
             463            1398     44.9038E-03     44.3531E-03
             463            1399     44.7332E-03     44.4819E-03
             464             242     47.7882E-03     47.2133E-03
             464             243     48.2754E-03     47.6213E-03
             464            1399     44.7332E-03     44.4819E-03
             464            1400     45.5004E-03     45.0444E-03
             465             243     48.2754E-03     47.6213E-03
             465             244     48.4380E-03     48.0966E-03
             465            1400     45.5004E-03     45.0444E-03
             465            1401     45.7161E-03     45.3598E-03
             466             244     48.4380E-03     48.0966E-03
             466             245     48.0300E-03     47.8173E-03
             466            1401     45.7161E-03     45.3598E-03
             466            1402     45.0724E-03     44.9414E-03
             467              12     24.5732E-03     24.3805E-03
             467             245     48.0300E-03     47.8173E-03
             467             246     23.0208E-03     22.8414E-03
             467            1402     45.0724E-03     44.9414E-03
             468             179     61.1394E-03     64.6441E-03
             468             180     91.9067E-03     101.014E-03
             468            1369     70.5720E-03     67.6383E-03
             468            1403     105.814E-03     101.340E-03
             469            1369     70.5720E-03     67.6383E-03
             469            1370     72.3131E-03     70.1731E-03
             469            1403     105.814E-03     101.340E-03
             469            1404     108.935E-03     101.585E-03
             470            1370     72.3131E-03     70.1731E-03
             470            1371     67.1683E-03     70.9489E-03
             470            1404     108.935E-03     101.585E-03
             470            1405     97.6306E-03     101.768E-03
             471            1371     67.1683E-03     70.9489E-03
             471            1372     67.8951E-03     67.5326E-03
             471            1405     97.6306E-03     101.768E-03
             471            1406     96.7518E-03     94.2480E-03
             472            1372     67.8951E-03     67.5326E-03
             472            1373     66.3282E-03     66.3436E-03
             472            1406     96.7518E-03     94.2480E-03
             472            1407     92.9344E-03     91.9605E-03
             473            1373     66.3282E-03     66.3436E-03
             473            1374     64.0770E-03     63.7640E-03
             473            1407     92.9344E-03     91.9605E-03
             473            1408     88.5761E-03     88.1981E-03
             474            1374     64.0770E-03     63.7640E-03
             474            1375     61.6770E-03     61.8169E-03
             474            1408     88.5761E-03     88.1981E-03
             474            1409     83.6900E-03     86.4898E-03
             475            1375     61.6770E-03     61.8169E-03
             475            1376     60.4634E-03     58.0122E-03
             475            1409     83.6900E-03     86.4898E-03
             475            1410     83.2362E-03     80.6705E-03
             476            1376     60.4634E-03     58.0122E-03
             476            1377     57.1232E-03     55.6324E-03
             476            1410     83.2362E-03     80.6705E-03
             476            1411     77.0188E-03     74.9793E-03
             477            1377     57.1232E-03     55.6324E-03
             477            1378     54.4763E-03     58.1280E-03
             477            1411     77.0188E-03     74.9793E-03
             477            1412     70.2758E-03     80.3380E-03
             478            1378     54.4763E-03     58.1280E-03
             478            1379     60.8777E-03     58.6361E-03
             478            1412     70.2758E-03     80.3380E-03
             478            1413     83.0395E-03     79.6445E-03
             479            1379     60.8777E-03     58.6361E-03
             479            1380     61.6622E-03     60.2108E-03
             479            1413     83.0395E-03     79.6445E-03
             479            1414     84.4273E-03     78.7828E-03
             480            1380     61.6622E-03     60.2108E-03
             480            1381     57.4548E-03     60.1261E-03
             480            1414     84.4273E-03     78.7828E-03
             480            1415     74.9342E-03     77.8669E-03
             481            1381     57.4548E-03     60.1261E-03
             481            1382     57.5494E-03     57.2011E-03
             481            1415     74.9342E-03     77.8669E-03
             481            1416     73.3479E-03     71.4458E-03
             482            1382     57.5494E-03     57.2011E-03
             482            1383     55.9812E-03     56.0017E-03
             482            1416     73.3479E-03     71.4458E-03
             482            1417     69.5044E-03     68.9874E-03
             483            1383     55.9812E-03     56.0017E-03
             483            1384     54.0961E-03     53.9274E-03
             483            1417     69.5044E-03     68.9874E-03
             483            1418     65.3784E-03     65.5702E-03
             484            1384     54.0961E-03     53.9274E-03
             484            1385     52.4490E-03     52.0916E-03
             484            1418     65.3784E-03     65.5702E-03
             484            1419     61.3776E-03     62.9520E-03
             485            1385     52.4490E-03     52.0916E-03
             485            1386     51.0498E-03     49.6612E-03
             485            1419     61.3776E-03     62.9520E-03
             485            1420     59.2147E-03     58.5307E-03
             486            1386     51.0498E-03     49.6612E-03
             486            1387     49.0561E-03     48.1735E-03
             486            1420     59.2147E-03     58.5307E-03
             486            1421     55.0419E-03     54.1634E-03
             487            1387     49.0561E-03     48.1735E-03
             487            1388     48.8238E-03     50.3252E-03
             487            1421     55.0419E-03     54.1634E-03
             487            1422     53.1005E-03     58.5619E-03
             488            1388     48.8238E-03     50.3252E-03
             488            1389     53.2640E-03     51.6872E-03
             488            1422     53.1005E-03     58.5619E-03
             488            1423     61.8148E-03     59.6507E-03
             489            1389     53.2640E-03     51.6872E-03
             489            1390     53.3043E-03     52.3349E-03
             489            1423     61.8148E-03     59.6507E-03
             489            1424     61.6096E-03     57.8140E-03
             490            1390     53.3043E-03     52.3349E-03
             490            1391     50.2813E-03     51.6633E-03
             490            1424     61.6096E-03     57.8140E-03
             490            1425     54.4921E-03     56.1163E-03
             491            1391     50.2813E-03     51.6633E-03
             491            1392     49.9411E-03     49.6098E-03
             491            1425     54.4921E-03     56.1163E-03
             491            1426     52.6338E-03     51.3518E-03
             492            1392     49.9411E-03     49.6098E-03
             492            1393     48.7330E-03     48.7748E-03
             492            1426     52.6338E-03     51.3518E-03
             492            1427     49.4898E-03     49.2210E-03
             493            1393     48.7330E-03     48.7748E-03
             493            1394     47.5423E-03     47.5968E-03
             493            1427     49.4898E-03     49.2210E-03
             493            1428     46.3863E-03     46.8041E-03
             494            1394     47.5423E-03     47.5968E-03
             494            1395     46.7481E-03     46.4504E-03
             494            1428     46.3863E-03     46.8041E-03
             494            1429     43.9879E-03     44.4320E-03
             495            1395     46.7481E-03     46.4504E-03
             495            1396     45.9805E-03     45.5329E-03
             495            1429     43.9879E-03     44.4320E-03
             495            1430     41.7023E-03     42.3601E-03
             496            1396     45.9805E-03     45.5329E-03
             496            1397     45.4545E-03     44.8315E-03
             496            1430     41.7023E-03     42.3601E-03
             496            1431     39.7543E-03     40.3871E-03
             497            1397     45.4545E-03     44.8315E-03
             497            1398     44.9038E-03     44.3531E-03
             497            1431     39.7543E-03     40.3871E-03
             497            1432     38.6510E-03     38.8314E-03
             498            1398     44.9038E-03     44.3531E-03
             498            1399     44.7332E-03     44.4819E-03
             498            1432     38.6510E-03     38.8314E-03
             498            1433     38.9601E-03     39.4388E-03
             499            1399     44.7332E-03     44.4819E-03
             499            1400     45.5004E-03     45.0444E-03
             499            1433     38.9601E-03     39.4388E-03
             499            1434     40.3301E-03     40.0833E-03
             500            1400     45.5004E-03     45.0444E-03
             500            1401     45.7161E-03     45.3598E-03
             500            1434     40.3301E-03     40.0833E-03
             500            1435     40.2106E-03     39.5284E-03
             501            1401     45.7161E-03     45.3598E-03
             501            1402     45.0724E-03     44.9414E-03
             501            1435     40.2106E-03     39.5284E-03
             501            1436     39.1422E-03     39.1536E-03
             502             246     23.0208E-03     22.8414E-03
             502             247     20.0644E-03     19.9763E-03
             502            1402     45.0724E-03     44.9414E-03
             502            1436     39.1422E-03     39.1536E-03
             503             180     91.9067E-03     101.014E-03
             503             181     121.412E-03     138.304E-03
             503            1403     105.814E-03     101.340E-03
             503            1437     140.639E-03     136.264E-03
             504            1403     105.814E-03     101.340E-03
             504            1404     108.935E-03     101.585E-03
             504            1437     140.639E-03     136.264E-03
             504            1438     142.302E-03     130.762E-03
             505            1404     108.935E-03     101.585E-03
             505            1405     97.6306E-03     101.768E-03
             505            1438     142.302E-03     130.762E-03
             505            1439     122.652E-03     130.146E-03
             506            1405     97.6306E-03     101.768E-03
             506            1406     96.7518E-03     94.2480E-03
             506            1439     122.652E-03     130.146E-03
             506            1440     120.267E-03     118.094E-03
             507            1406     96.7518E-03     94.2480E-03
             507            1407     92.9344E-03     91.9605E-03
             507            1440     120.267E-03     118.094E-03
             507            1441     114.879E-03     114.719E-03
             508            1407     92.9344E-03     91.9605E-03
             508            1408     88.5761E-03     88.1981E-03
             508            1441     114.879E-03     114.719E-03
             508            1442     109.556E-03     109.402E-03
             509            1408     88.5761E-03     88.1981E-03
             509            1409     83.6900E-03     86.4898E-03
             509            1442     109.556E-03     109.402E-03
             509            1443     104.111E-03     109.081E-03
             510            1409     83.6900E-03     86.4898E-03
             510            1410     83.2362E-03     80.6705E-03
             510            1443     104.111E-03     109.081E-03
             510            1444     107.771E-03     103.585E-03
             511            1410     83.2362E-03     80.6705E-03
             511            1411     77.0188E-03     74.9793E-03
             511            1444     107.771E-03     103.585E-03
             511            1445     100.899E-03     99.3929E-03
             512            1411     77.0188E-03     74.9793E-03
             512            1412     70.2758E-03     80.3380E-03
             512            1445     100.899E-03     99.3929E-03
             512            1446     88.8366E-03     109.525E-03
             513            1412     70.2758E-03     80.3380E-03
             513            1413     83.0395E-03     79.6445E-03
             513            1446     88.8366E-03     109.525E-03
             513            1447     106.125E-03     102.769E-03
             514            1413     83.0395E-03     79.6445E-03
             514            1414     84.4273E-03     78.7828E-03
             514            1447     106.125E-03     102.769E-03
             514            1448     106.226E-03     97.2286E-03
             515            1414     84.4273E-03     78.7828E-03
             515            1415     74.9342E-03     77.8669E-03
             515            1448     106.226E-03     97.2286E-03
             515            1449     90.0493E-03     95.6696E-03
             516            1415     74.9342E-03     77.8669E-03
             516            1416     73.3479E-03     71.4458E-03
             516            1449     90.0493E-03     95.6696E-03
             516            1450     87.0365E-03     85.2640E-03
             517            1416     73.3479E-03     71.4458E-03
             517            1417     69.5044E-03     68.9874E-03
             517            1450     87.0365E-03     85.2640E-03
             517            1451     81.4857E-03     81.4026E-03
             518            1417     69.5044E-03     68.9874E-03
             518            1418     65.3784E-03     65.5702E-03
             518            1451     81.4857E-03     81.4026E-03
             518            1452     75.9714E-03     76.2744E-03
             519            1418     65.3784E-03     65.5702E-03
             519            1419     61.3776E-03     62.9520E-03
             519            1452     75.9714E-03     76.2744E-03
             519            1453     70.9218E-03     73.8367E-03
             520            1419     61.3776E-03     62.9520E-03
             520            1420     59.2147E-03     58.5307E-03
             520            1453     70.9218E-03     73.8367E-03
             520            1454     70.3869E-03     69.1893E-03
             521            1420     59.2147E-03     58.5307E-03
             521            1421     55.0419E-03     54.1634E-03
             521            1454     70.3869E-03     69.1893E-03
             521            1455     65.0583E-03     64.7267E-03
             522            1421     55.0419E-03     54.1634E-03
             522            1422     53.1005E-03     58.5619E-03
             522            1455     65.0583E-03     64.7267E-03
             522            1456     59.7910E-03     72.2130E-03
             523            1422     53.1005E-03     58.5619E-03
             523            1423     61.8148E-03     59.6507E-03
             523            1456     59.7910E-03     72.2130E-03
             523            1457     71.7237E-03     69.6845E-03
             524            1423     61.8148E-03     59.6507E-03
             524            1424     61.6096E-03     57.8140E-03
             524            1457     71.7237E-03     69.6845E-03
             524            1458     70.3942E-03     64.3745E-03
             525            1424     61.6096E-03     57.8140E-03
             525            1425     54.4921E-03     56.1163E-03
             525            1458     70.3942E-03     64.3745E-03
             525            1459     58.2483E-03     62.0958E-03
             526            1425     54.4921E-03     56.1163E-03
             526            1426     52.6338E-03     51.3518E-03
             526            1459     58.2483E-03     62.0958E-03
             526            1460     54.9629E-03     53.7639E-03
             527            1426     52.6338E-03     51.3518E-03
             527            1427     49.4898E-03     49.2210E-03
             527            1460     54.9629E-03     53.7639E-03
             527            1461     49.7111E-03     49.6136E-03
             528            1427     49.4898E-03     49.2210E-03
             528            1428     46.3863E-03     46.8041E-03
             528            1461     49.7111E-03     49.6136E-03
             528            1462     44.4894E-03     45.1749E-03
             529            1428     46.3863E-03     46.8041E-03
             529            1429     43.9879E-03     44.4320E-03
             529            1462     44.4894E-03     45.1749E-03
             529            1463     40.7255E-03     40.9631E-03
             530            1429     43.9879E-03     44.4320E-03
             530            1430     41.7023E-03     42.3601E-03
             530            1463     40.7255E-03     40.9631E-03
             530            1464     36.8504E-03     38.0181E-03
             531            1430     41.7023E-03     42.3601E-03
             531            1431     39.7543E-03     40.3871E-03
             531            1464     36.8504E-03     38.0181E-03
             531            1465     33.6234E-03     35.3916E-03
             532            1431     39.7543E-03     40.3871E-03
             532            1432     38.6510E-03     38.8314E-03
             532            1465     33.6234E-03     35.3916E-03
             532            1466     31.4264E-03     32.6767E-03
             533            1432     38.6510E-03     38.8314E-03
             533            1433     38.9601E-03     39.4388E-03
             533            1466     31.4264E-03     32.6767E-03
             533            1467     31.2267E-03     33.0951E-03
             534            1433     38.9601E-03     39.4388E-03
             534            1434     40.3301E-03     40.0833E-03
             534            1467     31.2267E-03     33.0951E-03
             534            1468     33.0584E-03     33.0671E-03
             535            1434     40.3301E-03     40.0833E-03
             535            1435     40.2106E-03     39.5284E-03
             535            1468     33.0584E-03     33.0671E-03
             535            1469     32.3234E-03     31.6899E-03
             536            1435     40.2106E-03     39.5284E-03
             536            1436     39.1422E-03     39.1536E-03
             536            1469     32.3234E-03     31.6899E-03
             536            1470     30.3209E-03     31.0657E-03
             537             247     20.0644E-03     19.9763E-03
             537             248     15.6136E-03     15.6318E-03
             537            1436     39.1422E-03     39.1536E-03
             537            1470     30.3209E-03     31.0657E-03
             538             181     121.412E-03     138.304E-03
             538             182     144.681E-03     168.594E-03
             538            1437     140.639E-03     136.264E-03
             538            1471     168.414E-03     166.758E-03
             539            1437     140.639E-03     136.264E-03
             539            1438     142.302E-03     130.762E-03
             539            1471     168.414E-03     166.758E-03
             539            1472     166.833E-03     157.279E-03
             540            1438     142.302E-03     130.762E-03
             540            1439     122.652E-03     130.146E-03
             540            1472     166.833E-03     157.279E-03
             540            1473     140.813E-03     155.239E-03
             541            1439     122.652E-03     130.146E-03
             541            1440     120.267E-03     118.094E-03
             541            1473     140.813E-03     155.239E-03
             541            1474     138.590E-03     139.683E-03
             542            1440     120.267E-03     118.094E-03
             542            1441     114.879E-03     114.719E-03
             542            1474     138.590E-03     139.683E-03
             542            1475     130.886E-03     135.800E-03
             543            1441     114.879E-03     114.719E-03
             543            1442     109.556E-03     109.402E-03
             543            1475     130.886E-03     135.800E-03
             543            1476     125.126E-03     127.791E-03
             544            1442     109.556E-03     109.402E-03
             544            1443     104.111E-03     109.081E-03
             544            1476     125.126E-03     127.791E-03
             544            1477     118.069E-03     127.113E-03
             545            1443     104.111E-03     109.081E-03
             545            1444     107.771E-03     103.585E-03
             545            1477     118.069E-03     127.113E-03
             545            1478     124.918E-03     121.564E-03
             546            1444     107.771E-03     103.585E-03
             546            1445     100.899E-03     99.3929E-03
             546            1478     124.918E-03     121.564E-03
             546            1479     121.106E-03     120.496E-03
             547            1445     100.899E-03     99.3929E-03
             547            1446     88.8366E-03     109.525E-03
             547            1479     121.106E-03     120.496E-03
             547            1480     105.465E-03     135.502E-03
             548            1446     88.8366E-03     109.525E-03
             548            1447     106.125E-03     102.769E-03
             548            1480     105.465E-03     135.502E-03
             548            1481     125.315E-03     124.100E-03
             549            1447     106.125E-03     102.769E-03
             549            1448     106.226E-03     97.2286E-03
             549            1481     125.315E-03     124.100E-03
             549            1482     123.158E-03     115.552E-03
             550            1448     106.226E-03     97.2286E-03
             550            1449     90.0493E-03     95.6696E-03
             550            1482     123.158E-03     115.552E-03
             550            1483     101.711E-03     112.580E-03
             551            1449     90.0493E-03     95.6696E-03
             551            1450     87.0365E-03     85.2640E-03
             551            1483     101.711E-03     112.580E-03
             551            1484     98.3792E-03     98.7853E-03
             552            1450     87.0365E-03     85.2640E-03
             552            1451     81.4857E-03     81.4026E-03
             552            1484     98.3792E-03     98.7853E-03
             552            1485     90.5248E-03     93.8316E-03
             553            1451     81.4857E-03     81.4026E-03
             553            1452     75.9714E-03     76.2744E-03
             553            1485     90.5248E-03     93.8316E-03
             553            1486     84.0568E-03     86.1241E-03
             554            1452     75.9714E-03     76.2744E-03
             554            1453     70.9218E-03     73.8367E-03
             554            1486     84.0568E-03     86.1241E-03
             554            1487     77.5308E-03     82.6381E-03
             555            1453     70.9218E-03     73.8367E-03
             555            1454     70.3869E-03     69.1893E-03
             555            1487     77.5308E-03     82.6381E-03
             555            1488     78.5455E-03     77.5836E-03
             556            1454     70.3869E-03     69.1893E-03
             556            1455     65.0583E-03     64.7267E-03
             556            1488     78.5455E-03     77.5836E-03
             556            1489     75.0239E-03     74.9418E-03
             557            1455     65.0583E-03     64.7267E-03
             557            1456     59.7910E-03     72.2130E-03
             557            1489     75.0239E-03     74.9418E-03
             557            1490     67.2464E-03     85.7522E-03
             558            1456     59.7910E-03     72.2130E-03
             558            1457     71.7237E-03     69.6845E-03
             558            1490     67.2464E-03     85.7522E-03
             558            1491     81.1826E-03     80.5117E-03
             559            1457     71.7237E-03     69.6845E-03
             559            1458     70.3942E-03     64.3745E-03
             559            1491     81.1826E-03     80.5117E-03
             559            1492     78.6403E-03     73.2187E-03
             560            1458     70.3942E-03     64.3745E-03
             560            1459     58.2483E-03     62.0958E-03
             560            1492     78.6403E-03     73.2187E-03
             560            1493     62.2371E-03     69.4123E-03
             561            1459     58.2483E-03     62.0958E-03
             561            1460     54.9629E-03     53.7639E-03
             561            1493     62.2371E-03     69.4123E-03
             561            1494     57.9087E-03     57.6924E-03
             562            1460     54.9629E-03     53.7639E-03
             562            1461     49.7111E-03     49.6136E-03
             562            1494     57.9087E-03     57.6924E-03
             562            1495     50.1434E-03     51.6214E-03
             563            1461     49.7111E-03     49.6136E-03
             563            1462     44.4894E-03     45.1749E-03
             563            1495     50.1434E-03     51.6214E-03
             563            1496     42.7909E-03     44.6322E-03
             564            1462     44.4894E-03     45.1749E-03
             564            1463     40.7255E-03     40.9631E-03
             564            1496     42.7909E-03     44.6322E-03
             564            1497     37.3946E-03     37.9345E-03
             565            1463     40.7255E-03     40.9631E-03
             565            1464     36.8504E-03     38.0181E-03
             565            1497     37.3946E-03     37.9345E-03
             565            1498     31.8045E-03     32.8492E-03
             566            1464     36.8504E-03     38.0181E-03
             566            1465     33.6234E-03     35.3916E-03
             566            1498     31.8045E-03     32.8492E-03
             566            1499     27.9134E-03     29.3614E-03
             567            1465     33.6234E-03     35.3916E-03
             567            1466     31.4264E-03     32.6767E-03
             567            1499     27.9134E-03     29.3614E-03
             567            1500     25.8232E-03     26.7873E-03
             568            1466     31.4264E-03     32.6767E-03
             568            1467     31.2267E-03     33.0951E-03
             568            1500     25.8232E-03     26.7873E-03
             568            1501     23.6687E-03     27.4734E-03
             569            1467     31.2267E-03     33.0951E-03
             569            1468     33.0584E-03     33.0671E-03
             569            1501     23.6687E-03     27.4734E-03
             569            1502     24.9344E-03     25.1141E-03
             570            1468     33.0584E-03     33.0671E-03
             570            1469     32.3234E-03     31.6899E-03
             570            1502     24.9344E-03     25.1141E-03
             570            1503     23.4110E-03     21.7872E-03
             571            1469     32.3234E-03     31.6899E-03
             571            1470     30.3209E-03     31.0657E-03
             571            1503     23.4110E-03     21.7872E-03
             571            1504     19.4231E-03     21.0446E-03
             572             248     15.6136E-03     15.6318E-03
             572             249     10.2588E-03     10.3694E-03
             572            1470     30.3209E-03     31.0657E-03
             572            1504     19.4231E-03     21.0446E-03
             573             182     144.681E-03     168.594E-03
             573             183     165.848E-03     186.243E-03
             573            1471     168.414E-03     166.758E-03
             573            1505     190.125E-03     186.918E-03
             574            1471     168.414E-03     166.758E-03
             574            1472     166.833E-03     157.279E-03
             574            1505     190.125E-03     186.918E-03
             574            1506     182.138E-03     174.254E-03
             575            1472     166.833E-03     157.279E-03
             575            1473     140.813E-03     155.239E-03
             575            1506     182.138E-03     174.254E-03
             575            1507     157.760E-03     169.621E-03
             576            1473     140.813E-03     155.239E-03
             576            1474     138.590E-03     139.683E-03
             576            1507     157.760E-03     169.621E-03
             576            1508     154.908E-03     154.431E-03
             577            1474     138.590E-03     139.683E-03
             577            1475     130.886E-03     135.800E-03
             577            1508     154.908E-03     154.431E-03
             577            1509     145.260E-03     149.732E-03
             578            1475     130.886E-03     135.800E-03
             578            1476     125.126E-03     127.791E-03
             578            1509     145.260E-03     149.732E-03
             578            1510     139.074E-03     140.040E-03
             579            1476     125.126E-03     127.791E-03
             579            1477     118.069E-03     127.113E-03
             579            1510     139.074E-03     140.040E-03
             579            1511     129.665E-03     136.705E-03
             580            1477     118.069E-03     127.113E-03
             580            1478     124.918E-03     121.564E-03
             580            1511     129.665E-03     136.705E-03
             580            1512     132.426E-03     128.571E-03
             581            1478     124.918E-03     121.564E-03
             581            1479     121.106E-03     120.496E-03
             581            1512     132.426E-03     128.571E-03
             581            1513     129.325E-03     125.895E-03
             582            1479     121.106E-03     120.496E-03
             582            1480     105.465E-03     135.502E-03
             582            1513     129.325E-03     125.895E-03
             582            1514     122.183E-03     146.112E-03
             583            1480     105.465E-03     135.502E-03
             583            1481     125.315E-03     124.100E-03
             583            1514     122.183E-03     146.112E-03
             583            1515     142.372E-03     140.225E-03
             584            1481     125.315E-03     124.100E-03
             584            1482     123.158E-03     115.552E-03
             584            1515     142.372E-03     140.225E-03
             584            1516     134.650E-03     128.483E-03
             585            1482     123.158E-03     115.552E-03
             585            1483     101.711E-03     112.580E-03
             585            1516     134.650E-03     128.483E-03
             585            1517     113.714E-03     122.743E-03
             586            1483     101.711E-03     112.580E-03
             586            1484     98.3792E-03     98.7853E-03
             586            1517     113.714E-03     122.743E-03
             586            1518     109.340E-03     108.715E-03
             587            1484     98.3792E-03     98.7853E-03
             587            1485     90.5248E-03     93.8316E-03
             587            1518     109.340E-03     108.715E-03
             587            1519     99.6273E-03     102.672E-03
             588            1485     90.5248E-03     93.8316E-03
             588            1486     84.0568E-03     86.1241E-03
             588            1519     99.6273E-03     102.672E-03
             588            1520     92.3134E-03     93.2407E-03
             589            1486     84.0568E-03     86.1241E-03
             589            1487     77.5308E-03     82.6381E-03
             589            1520     92.3134E-03     93.2407E-03
             589            1521     83.5093E-03     87.3527E-03
             590            1487     77.5308E-03     82.6381E-03
             590            1488     78.5455E-03     77.5836E-03
             590            1521     83.5093E-03     87.3527E-03
             590            1522     81.2032E-03     79.3628E-03
             591            1488     78.5455E-03     77.5836E-03
             591            1489     75.0239E-03     74.9418E-03
             591            1522     81.2032E-03     79.3628E-03
             591            1523     76.9760E-03     74.6361E-03
             592            1489     75.0239E-03     74.9418E-03
             592            1490     67.2464E-03     85.7522E-03
             592            1523     76.9760E-03     74.6361E-03
             592            1524     76.4399E-03     91.2472E-03
             593            1490     67.2464E-03     85.7522E-03
             593            1491     81.1826E-03     80.5117E-03
             593            1524     76.4399E-03     91.2472E-03
             593            1525     92.7440E-03     91.6947E-03
             594            1491     81.1826E-03     80.5117E-03
             594            1492     78.6403E-03     73.2187E-03
             594            1525     92.7440E-03     91.6947E-03
             594            1526     85.5128E-03     81.1659E-03
             595            1492     78.6403E-03     73.2187E-03
             595            1493     62.2371E-03     69.4123E-03
             595            1526     85.5128E-03     81.1659E-03
             595            1527     68.4306E-03     74.4744E-03
             596            1493     62.2371E-03     69.4123E-03
             596            1494     57.9087E-03     57.6924E-03
             596            1527     68.4306E-03     74.4744E-03
             596            1528     62.6642E-03     61.8689E-03
             597            1494     57.9087E-03     57.6924E-03
             597            1495     50.1434E-03     51.6214E-03
             597            1528     62.6642E-03     61.8689E-03
             597            1529     53.1155E-03     54.6119E-03
             598            1495     50.1434E-03     51.6214E-03
             598            1496     42.7909E-03     44.6322E-03
             598            1529     53.1155E-03     54.6119E-03
             598            1530     44.7462E-03     45.8105E-03
             599            1496     42.7909E-03     44.6322E-03
             599            1497     37.3946E-03     37.9345E-03
             599            1530     44.7462E-03     45.8105E-03
             599            1531     36.9661E-03     37.4823E-03
             600            1497     37.3946E-03     37.9345E-03
             600            1498     31.8045E-03     32.8492E-03
             600            1531     36.9661E-03     37.4823E-03
             600            1532     29.1844E-03     29.3713E-03
             601            1498     31.8045E-03     32.8492E-03
             601            1499     27.9134E-03     29.3614E-03
             601            1532     29.1844E-03     29.3713E-03
             601            1533     22.0389E-03     22.3894E-03
             602            1499     27.9134E-03     29.3614E-03
             602            1500     25.8232E-03     26.7873E-03
             602            1533     22.0389E-03     22.3894E-03
             602            1534     17.7779E-03     17.2863E-03
             603            1500     25.8232E-03     26.7873E-03
             603            1501     23.6687E-03     27.4734E-03
             603            1534     17.7779E-03     17.2863E-03
             603            1535     20.0756E-03     24.0586E-03
             604            1501     23.6687E-03     27.4734E-03
             604            1502     24.9344E-03     25.1141E-03
             604            1535     20.0756E-03     24.0586E-03
             604            1536     24.3446E-03     24.5720E-03
             605            1502     24.9344E-03     25.1141E-03
             605            1503     23.4110E-03     21.7872E-03
             605            1536     24.3446E-03     24.5720E-03
             605            1537     18.1160E-03     15.4177E-03
             606            1503     23.4110E-03     21.7872E-03
             606            1504     19.4231E-03     21.0446E-03
             606            1537     18.1160E-03     15.4177E-03
             606            1538     11.5980E-03     15.2929E-03
             607             249     10.2588E-03     10.3694E-03
             607             250     6.85032E-03     8.78999E-03
             607            1504     19.4231E-03     21.0446E-03
             607            1538     11.5980E-03     15.2929E-03
             608              10     173.709E-03     184.196E-03
             608             183     165.848E-03     186.243E-03
             608             284     188.841E-03     186.130E-03
             608            1505     190.125E-03     186.918E-03
             609             283     180.029E-03     175.146E-03
             609             284     188.841E-03     186.130E-03
             609            1505     190.125E-03     186.918E-03
             609            1506     182.138E-03     174.254E-03
             610             282     166.194E-03     170.575E-03
             610             283     180.029E-03     175.146E-03
             610            1506     182.138E-03     174.254E-03
             610            1507     157.760E-03     169.621E-03
             611             281     161.436E-03     159.927E-03
             611             282     166.194E-03     170.575E-03
             611            1507     157.760E-03     169.621E-03
             611            1508     154.908E-03     154.431E-03
             612             280     153.147E-03     154.493E-03
             612             281     161.436E-03     159.927E-03
             612            1508     154.908E-03     154.431E-03
             612            1509     145.260E-03     149.732E-03
             613             279     146.888E-03     145.967E-03
             613             280     153.147E-03     154.493E-03
             613            1509     145.260E-03     149.732E-03
             613            1510     139.074E-03     140.040E-03
             614             278     138.307E-03     140.226E-03
             614             279     146.888E-03     145.967E-03
             614            1510     139.074E-03     140.040E-03
             614            1511     129.665E-03     136.705E-03
             615             277     133.668E-03     130.447E-03
             615             278     138.307E-03     140.226E-03
             615            1511     129.665E-03     136.705E-03
             615            1512     132.426E-03     128.571E-03
             616             276     126.637E-03     122.203E-03
             616             277     133.668E-03     130.447E-03
             616            1512     132.426E-03     128.571E-03
             616            1513     129.325E-03     125.895E-03
             617             275     128.651E-03     138.237E-03
             617             276     126.637E-03     122.203E-03
             617            1513     129.325E-03     125.895E-03
             617            1514     122.183E-03     146.112E-03
             618             274     141.768E-03     140.256E-03
             618             275     128.651E-03     138.237E-03
             618            1514     122.183E-03     146.112E-03
             618            1515     142.372E-03     140.225E-03
             619             273     132.637E-03     128.967E-03
             619             274     141.768E-03     140.256E-03
             619            1515     142.372E-03     140.225E-03
             619            1516     134.650E-03     128.483E-03
             620             272     119.568E-03     123.036E-03
             620             273     132.637E-03     128.967E-03
             620            1516     134.650E-03     128.483E-03
             620            1517     113.714E-03     122.743E-03
             621             271     113.724E-03     112.559E-03
             621             272     119.568E-03     123.036E-03
             621            1517     113.714E-03     122.743E-03
             621            1518     109.340E-03     108.715E-03
             622             270     105.206E-03     106.114E-03
             622             271     113.724E-03     112.559E-03
             622            1518     109.340E-03     108.715E-03
             622            1519     99.6273E-03     102.672E-03
             623             269     98.0808E-03     97.5482E-03
             623             270     105.206E-03     106.114E-03
             623            1519     99.6273E-03     102.672E-03
             623            1520     92.3134E-03     93.2407E-03
             624             268     89.5743E-03     90.3939E-03
             624             269     98.0808E-03     97.5482E-03
             624            1520     92.3134E-03     93.2407E-03
             624            1521     83.5093E-03     87.3527E-03
             625             267     82.7391E-03     80.8505E-03
             625             268     89.5743E-03     90.3939E-03
             625            1521     83.5093E-03     87.3527E-03
             625            1522     81.2032E-03     79.3628E-03
             626             266     74.7630E-03     71.4440E-03
             626             267     82.7391E-03     80.8505E-03
             626            1522     81.2032E-03     79.3628E-03
             626            1523     76.9760E-03     74.6361E-03
             627             265     80.1335E-03     86.2530E-03
             627             266     74.7630E-03     71.4440E-03
             627            1523     76.9760E-03     74.6361E-03
             627            1524     76.4399E-03     91.2472E-03
             628             264     92.4898E-03     92.2906E-03
             628             265     80.1335E-03     86.2530E-03
             628            1524     76.4399E-03     91.2472E-03
             628            1525     92.7440E-03     91.6947E-03
             629             263     83.3083E-03     80.9276E-03
             629             264     92.4898E-03     92.2906E-03
             629            1525     92.7440E-03     91.6947E-03
             629            1526     85.5128E-03     81.1659E-03
             630             262     71.2802E-03     73.8484E-03
             630             263     83.3083E-03     80.9276E-03
             630            1526     85.5128E-03     81.1659E-03
             630            1527     68.4306E-03     74.4744E-03
             631             261     64.6326E-03     63.8087E-03
             631             262     71.2802E-03     73.8484E-03
             631            1527     68.4306E-03     74.4744E-03
             631            1528     62.6642E-03     61.8689E-03
             632             260     56.1268E-03     56.6920E-03
             632             261     64.6326E-03     63.8087E-03
             632            1528     62.6642E-03     61.8689E-03
             632            1529     53.1155E-03     54.6119E-03
             633             259     48.7197E-03     48.5011E-03
             633             260     56.1268E-03     56.6920E-03
             633            1529     53.1155E-03     54.6119E-03
             633            1530     44.7462E-03     45.8105E-03
             634             258     40.7070E-03     40.6812E-03
             634             259     48.7197E-03     48.5011E-03
             634            1530     44.7462E-03     45.8105E-03
             634            1531     36.9661E-03     37.4823E-03
             635             257     32.8896E-03     32.2668E-03
             635             258     40.7070E-03     40.6812E-03
             635            1531     36.9661E-03     37.4823E-03
             635            1532     29.1844E-03     29.3713E-03
             636             256     24.0329E-03     23.7227E-03
             636             257     32.8896E-03     32.2668E-03
             636            1532     29.1844E-03     29.3713E-03
             636            1533     22.0389E-03     22.3894E-03
             637             255     16.2688E-03     15.3652E-03
             637             256     24.0329E-03     23.7227E-03
             637            1533     22.0389E-03     22.3894E-03
             637            1534     17.7779E-03     17.2863E-03
             638             254     20.3108E-03     23.2774E-03
             638             255     16.2688E-03     15.3652E-03
             638            1534     17.7779E-03     17.2863E-03
             638            1535     20.0756E-03     24.0586E-03
             639             253     24.5828E-03     25.6391E-03
             639             254     20.3108E-03     23.2774E-03
             639            1535     20.0756E-03     24.0586E-03
             639            1536     24.3446E-03     24.5720E-03
             640             252     14.2356E-03     12.5451E-03
             640             253     24.5828E-03     25.6391E-03
             640            1536     24.3446E-03     24.5720E-03
             640            1537     18.1160E-03     15.4177E-03
             641             251     7.29373E-03     12.1663E-03
             641             252     14.2356E-03     12.5451E-03
             641            1537     18.1160E-03     15.4177E-03
             641            1538     11.5980E-03     15.2929E-03
             642              15     4.87554E-03     8.45815E-03
             642             250     6.85032E-03     8.78999E-03
             642             251     7.29373E-03     12.1663E-03
             642            1538     11.5980E-03     15.2929E-03
             643              16     5.26488E-03     6.72304E-03
             643             285     7.74528E-03     7.92292E-03
             643             324     626.089E-06     626.199E-06
             643            1539     616.039E-06     628.697E-06
             644             285     7.74528E-03     7.92292E-03
             644             286     8.21638E-03     8.29451E-03
             644            1539     616.039E-06     628.697E-06
             644            1540     599.551E-06     621.044E-06
             645             286     8.21638E-03     8.29451E-03
             645             287     8.58937E-03     8.56347E-03
             645            1540     599.551E-06     621.044E-06
             645            1541     592.215E-06     612.606E-06
             646             287     8.58937E-03     8.56347E-03
             646             288     8.96816E-03     8.88820E-03
             646            1541     592.215E-06     612.606E-06
             646            1542     590.399E-06     615.291E-06
             647             288     8.96816E-03     8.88820E-03
             647             289     9.25416E-03     9.11835E-03
             647            1542     590.399E-06     615.291E-06
             647            1543     589.155E-06     616.991E-06
             648             289     9.25416E-03     9.11835E-03
             648             290     9.50802E-03     9.32424E-03
             648            1543     589.155E-06     616.991E-06
             648            1544     587.926E-06     618.836E-06
             649             290     9.50802E-03     9.32424E-03
             649             291     9.71798E-03     9.47986E-03
             649            1544     587.926E-06     618.836E-06
             649            1545     586.948E-06     620.833E-06
             650             291     9.71798E-03     9.47986E-03
             650             292     9.91213E-03     9.62231E-03
             650            1545     586.948E-06     620.833E-06
             650            1546     586.538E-06     622.827E-06
             651             292     9.91213E-03     9.62231E-03
             651             293     10.0879E-03     9.74360E-03
             651            1546     586.538E-06     622.827E-06
             651            1547     586.201E-06     625.195E-06
             652             293     10.0879E-03     9.74360E-03
             652             294     10.2491E-03     9.85205E-03
             652            1547     586.201E-06     625.195E-06
             652            1548     586.525E-06     627.359E-06
             653             294     10.2491E-03     9.85205E-03
             653             295     10.3974E-03     9.94532E-03
             653            1548     586.525E-06     627.359E-06
             653            1549     586.834E-06     630.107E-06
             654             295     10.3974E-03     9.94532E-03
             654             296     10.5051E-03     10.0021E-03
             654            1549     586.834E-06     630.107E-06
             654            1550     587.949E-06     632.395E-06
             655             296     10.5051E-03     10.0021E-03
             655             297     10.5784E-03     10.0128E-03
             655            1550     587.949E-06     632.395E-06
             655            1551     588.909E-06     635.618E-06
             656             297     10.5784E-03     10.0128E-03
             656             298     10.5381E-03     9.92616E-03
             656            1551     588.909E-06     635.618E-06
             656            1552     590.893E-06     638.051E-06
             657             298     10.5381E-03     9.92616E-03
             657             299     10.3895E-03     9.69067E-03
             657            1552     590.893E-06     638.051E-06
             657            1553     592.798E-06     641.856E-06
             658             299     10.3895E-03     9.69067E-03
             658             300     9.96433E-03     9.21410E-03
             658            1553     592.798E-06     641.856E-06
             658            1554     595.502E-06     644.788E-06
             659             300     9.96433E-03     9.21410E-03
             659             301     9.26271E-03     8.36473E-03
             659            1554     595.502E-06     644.788E-06
             659            1555     598.928E-06     648.403E-06
             660             301     9.26271E-03     8.36473E-03
             660             302     7.90004E-03     6.87072E-03
             660            1555     598.928E-06     648.403E-06
             660            1556     606.115E-06     657.438E-06
             661              17     5.93188E-03     4.69016E-03
             661             302     7.90004E-03     6.87072E-03
             661             303     630.255E-06     675.442E-06
             661            1556     606.115E-06     657.438E-06
             662             323     632.700E-06     631.709E-06
             662             324     626.089E-06     626.199E-06
             662            1539     616.039E-06     628.697E-06
             662            1557     624.848E-06     631.426E-06
             663            1539     616.039E-06     628.697E-06
             663            1540     599.551E-06     621.044E-06
             663            1557     624.848E-06     631.426E-06
             663            1558     612.824E-06     619.285E-06
             664            1540     599.551E-06     621.044E-06
             664            1541     592.215E-06     612.606E-06
             664            1558     612.824E-06     619.285E-06
             664            1559     609.511E-06     607.504E-06
             665            1541     592.215E-06     612.606E-06
             665            1542     590.399E-06     615.291E-06
             665            1559     609.511E-06     607.504E-06
             665            1560     611.013E-06     607.037E-06
             666            1542     590.399E-06     615.291E-06
             666            1543     589.155E-06     616.991E-06
             666            1560     611.013E-06     607.037E-06
             666            1561     612.963E-06     605.646E-06
             667            1543     589.155E-06     616.991E-06
             667            1544     587.926E-06     618.836E-06
             667            1561     612.963E-06     605.646E-06
             667            1562     614.748E-06     604.566E-06
             668            1544     587.926E-06     618.836E-06
             668            1545     586.948E-06     620.833E-06
             668            1562     614.748E-06     604.566E-06
             668            1563     616.562E-06     603.851E-06
             669            1545     586.948E-06     620.833E-06
             669            1546     586.538E-06     622.827E-06
             669            1563     616.562E-06     603.851E-06
             669            1564     618.746E-06     603.327E-06
             670            1546     586.538E-06     622.827E-06
             670            1547     586.201E-06     625.195E-06
             670            1564     618.746E-06     603.327E-06
             670            1565     620.778E-06     603.363E-06
             671            1547     586.201E-06     625.195E-06
             671            1548     586.525E-06     627.359E-06
             671            1565     620.778E-06     603.363E-06
             671            1566     623.255E-06     603.438E-06
             672            1548     586.525E-06     627.359E-06
             672            1549     586.834E-06     630.107E-06
             672            1566     623.255E-06     603.438E-06
             672            1567     625.512E-06     604.209E-06
             673            1549     586.834E-06     630.107E-06
             673            1550     587.949E-06     632.395E-06
             673            1567     625.512E-06     604.209E-06
             673            1568     628.286E-06     604.873E-06
             674            1550     587.949E-06     632.395E-06
             674            1551     588.909E-06     635.618E-06
             674            1568     628.286E-06     604.873E-06
             674            1569     630.742E-06     606.382E-06
             675            1551     588.909E-06     635.618E-06
             675            1552     590.893E-06     638.051E-06
             675            1569     630.742E-06     606.382E-06
             675            1570     633.771E-06     607.654E-06
             676            1552     590.893E-06     638.051E-06
             676            1553     592.798E-06     641.856E-06
             676            1570     633.771E-06     607.654E-06
             676            1571     636.510E-06     609.743E-06
             677            1553     592.798E-06     641.856E-06
             677            1554     595.502E-06     644.788E-06
             677            1571     636.510E-06     609.743E-06
             677            1572     639.228E-06     611.702E-06
             678            1554     595.502E-06     644.788E-06
             678            1555     598.928E-06     648.403E-06
             678            1572     639.228E-06     611.702E-06
             678            1573     641.553E-06     612.384E-06
             679            1555     598.928E-06     648.403E-06
             679            1556     606.115E-06     657.438E-06
             679            1573     641.553E-06     612.384E-06
             679            1574     648.390E-06     621.165E-06
             680             303     630.255E-06     675.442E-06
             680             304     669.845E-06     635.795E-06
             680            1556     606.115E-06     657.438E-06
             680            1574     648.390E-06     621.165E-06
             681              19     567.124E-06     578.968E-06
             681             322     604.847E-06     612.216E-06
             681             323     632.700E-06     631.709E-06
             681            1557     624.848E-06     631.426E-06
             682             321     639.557E-06     634.982E-06
             682             322     604.847E-06     612.216E-06
             682            1557     624.848E-06     631.426E-06
             682            1558     612.824E-06     619.285E-06
             683             320     637.179E-06     621.632E-06
             683             321     639.557E-06     634.982E-06
             683            1558     612.824E-06     619.285E-06
             683            1559     609.511E-06     607.504E-06
             684             319     638.906E-06     616.580E-06
             684             320     637.179E-06     621.632E-06
             684            1559     609.511E-06     607.504E-06
             684            1560     611.013E-06     607.037E-06
             685             318     641.203E-06     613.124E-06
             685             319     638.906E-06     616.580E-06
             685            1560     611.013E-06     607.037E-06
             685            1561     612.963E-06     605.646E-06
             686             317     643.656E-06     609.786E-06
             686             318     641.203E-06     613.124E-06
             686            1561     612.963E-06     605.646E-06
             686            1562     614.748E-06     604.566E-06
             687             316     646.103E-06     606.683E-06
             687             317     643.656E-06     609.786E-06
             687            1562     614.748E-06     604.566E-06
             687            1563     616.562E-06     603.851E-06
             688             315     648.488E-06     604.329E-06
             688             316     646.103E-06     606.683E-06
             688            1563     616.562E-06     603.851E-06
             688            1564     618.746E-06     603.327E-06
             689             314     651.150E-06     602.089E-06
             689             315     648.488E-06     604.329E-06
             689            1564     618.746E-06     603.327E-06
             689            1565     620.778E-06     603.363E-06
             690             313     653.510E-06     600.698E-06
             690             314     651.150E-06     602.089E-06
             690            1565     620.778E-06     603.363E-06
             690            1566     623.255E-06     603.438E-06
             691             312     656.411E-06     599.293E-06
             691             313     653.510E-06     600.698E-06
             691            1566     623.255E-06     603.438E-06
             691            1567     625.512E-06     604.209E-06
             692             311     658.664E-06     598.949E-06
             692             312     656.411E-06     599.293E-06
             692            1567     625.512E-06     604.209E-06
             692            1568     628.286E-06     604.873E-06
             693             310     661.870E-06     598.279E-06
             693             311     658.664E-06     598.949E-06
             693            1568     628.286E-06     604.873E-06
             693            1569     630.742E-06     606.382E-06
             694             309     663.934E-06     599.060E-06
             694             310     661.870E-06     598.279E-06
             694            1569     630.742E-06     606.382E-06
             694            1570     633.771E-06     607.654E-06
             695             308     667.310E-06     598.970E-06
             695             309     663.934E-06     599.060E-06
             695            1570     633.771E-06     607.654E-06
             695            1571     636.510E-06     609.743E-06
             696             307     668.846E-06     600.352E-06
             696             308     667.310E-06     598.970E-06
             696            1571     636.510E-06     609.743E-06
             696            1572     639.228E-06     611.702E-06
             697             306     670.911E-06     600.250E-06
             697             307     668.846E-06     600.352E-06
             697            1572     639.228E-06     611.702E-06
             697            1573     641.553E-06     612.384E-06
             698             305     681.294E-06     607.770E-06
             698             306     670.911E-06     600.250E-06
             698            1573     641.553E-06     612.384E-06
             698            1574     648.390E-06     621.165E-06
             699              18     662.599E-06     592.163E-06
             699             304     669.845E-06     635.795E-06
             699             305     681.294E-06     607.770E-06
             699            1574     648.390E-06     621.165E-06
             700              16     5.26488E-03     6.72304E-03
             700             325     3.07382E-03     4.57981E-03
             700             454     10.3606E-03     11.9061E-03
             700            1575     6.15447E-03     7.80641E-03
             701             325     3.07382E-03     4.57981E-03
             701             326     3.21649E-03     3.06862E-03
             701            1575     6.15447E-03     7.80641E-03
             701            1576     5.35609E-03     5.28512E-03
             702             326     3.21649E-03     3.06862E-03
             702             327     3.55110E-03     2.82474E-03
             702            1576     5.35609E-03     5.28512E-03
             702            1577     6.17750E-03     4.92571E-03
             703             327     3.55110E-03     2.82474E-03
             703             328     3.84449E-03     2.89755E-03
             703            1577     6.17750E-03     4.92571E-03
             703            1578     6.88471E-03     5.19908E-03
             704             328     3.84449E-03     2.89755E-03
             704             329     4.16547E-03     3.10505E-03
             704            1578     6.88471E-03     5.19908E-03
             704            1579     7.54692E-03     5.67523E-03
             705             329     4.16547E-03     3.10505E-03
             705             330     4.45911E-03     3.33835E-03
             705            1579     7.54692E-03     5.67523E-03
             705            1580     8.15827E-03     6.19157E-03
             706             330     4.45911E-03     3.33835E-03
             706             331     4.75726E-03     3.60205E-03
             706            1580     8.15827E-03     6.19157E-03
             706            1581     8.75239E-03     6.73417E-03
             707             331     4.75726E-03     3.60205E-03
             707             332     5.04395E-03     3.86422E-03
             707            1581     8.75239E-03     6.73417E-03
             707            1582     9.33567E-03     7.28206E-03
             708             332     5.04395E-03     3.86422E-03
             708             333     5.33272E-03     4.13827E-03
             708            1582     9.33567E-03     7.28206E-03
             708            1583     9.92137E-03     7.84315E-03
             709             333     5.33272E-03     4.13827E-03
             709             334     5.61503E-03     4.40783E-03
             709            1583     9.92137E-03     7.84315E-03
             709            1584     10.5082E-03     8.40872E-03
             710             334     5.61503E-03     4.40783E-03
             710             335     5.89643E-03     4.67883E-03
             710            1584     10.5082E-03     8.40872E-03
             710            1585     11.0938E-03     8.97887E-03
             711             335     5.89643E-03     4.67883E-03
             711             336     6.16384E-03     4.93749E-03
             711            1585     11.0938E-03     8.97887E-03
             711            1586     11.6784E-03     9.54316E-03
             712             336     6.16384E-03     4.93749E-03
             712             337     6.41717E-03     5.17761E-03
             712            1586     11.6784E-03     9.54316E-03
             712            1587     12.2348E-03     10.0885E-03
             713             337     6.41717E-03     5.17761E-03
             713             338     6.63068E-03     5.38489E-03
             713            1587     12.2348E-03     10.0885E-03
             713            1588     12.7571E-03     10.5865E-03
             714             338     6.63068E-03     5.38489E-03
             714             339     6.78466E-03     5.52412E-03
             714            1588     12.7571E-03     10.5865E-03
             714            1589     13.1590E-03     10.9863E-03
             715             339     6.78466E-03     5.52412E-03
             715             340     6.84429E-03     5.57976E-03
             715            1589     13.1590E-03     10.9863E-03
             715            1590     13.3922E-03     11.2160E-03
             716             340     6.84429E-03     5.57976E-03
             716             341     6.73394E-03     5.50619E-03
             716            1590     13.3922E-03     11.2160E-03
             716            1591     13.2213E-03     11.1229E-03
             717             341     6.73394E-03     5.50619E-03
             717             342     6.51163E-03     5.36266E-03
             717            1591     13.2213E-03     11.1229E-03
             717            1592     12.6350E-03     10.8047E-03
             718              20     5.95434E-03     5.45877E-03
             718             342     6.51163E-03     5.36266E-03
             718             343     11.1154E-03     10.3760E-03
             718            1592     12.6350E-03     10.8047E-03
             719             453     10.3576E-03     9.74449E-03
             719             454     10.3606E-03     11.9061E-03
             719            1575     6.15447E-03     7.80641E-03
             719            1593     6.85456E-03     6.58668E-03
             720            1575     6.15447E-03     7.80641E-03
             720            1576     5.35609E-03     5.28512E-03
             720            1593     6.85456E-03     6.58668E-03
             720            1594     5.09142E-03     5.05357E-03
             721            1576     5.35609E-03     5.28512E-03
             721            1577     6.17750E-03     4.92571E-03
             721            1594     5.09142E-03     5.05357E-03
             721            1595     5.62850E-03     4.88090E-03
             722            1577     6.17750E-03     4.92571E-03
             722            1578     6.88471E-03     5.19908E-03
             722            1595     5.62850E-03     4.88090E-03
             722            1596     6.44322E-03     5.33636E-03
             723            1578     6.88471E-03     5.19908E-03
             723            1579     7.54692E-03     5.67523E-03
             723            1596     6.44322E-03     5.33636E-03
             723            1597     7.13880E-03     5.90483E-03
             724            1579     7.54692E-03     5.67523E-03
             724            1580     8.15827E-03     6.19157E-03
             724            1597     7.13880E-03     5.90483E-03
             724            1598     7.77316E-03     6.49141E-03
             725            1580     8.15827E-03     6.19157E-03
             725            1581     8.75239E-03     6.73417E-03
             725            1598     7.77316E-03     6.49141E-03
             725            1599     8.36902E-03     7.07152E-03
             726            1581     8.75239E-03     6.73417E-03
             726            1582     9.33567E-03     7.28206E-03
             726            1599     8.36902E-03     7.07152E-03
             726            1600     8.96985E-03     7.65982E-03
             727            1582     9.33567E-03     7.28206E-03
             727            1583     9.92137E-03     7.84315E-03
             727            1600     8.96985E-03     7.65982E-03
             727            1601     9.57198E-03     8.25473E-03
             728            1583     9.92137E-03     7.84315E-03
             728            1584     10.5082E-03     8.40872E-03
             728            1601     9.57198E-03     8.25473E-03
             728            1602     10.1882E-03     8.86449E-03
             729            1584     10.5082E-03     8.40872E-03
             729            1585     11.0938E-03     8.97887E-03
             729            1602     10.1882E-03     8.86449E-03
             729            1603     10.8192E-03     9.48790E-03
             730            1585     11.0938E-03     8.97887E-03
             730            1586     11.6784E-03     9.54316E-03
             730            1603     10.8192E-03     9.48790E-03
             730            1604     11.4599E-03     10.1266E-03
             731            1586     11.6784E-03     9.54316E-03
             731            1587     12.2348E-03     10.0885E-03
             731            1604     11.4599E-03     10.1266E-03
             731            1605     12.1163E-03     10.7726E-03
             732            1587     12.2348E-03     10.0885E-03
             732            1588     12.7571E-03     10.5865E-03
             732            1605     12.1163E-03     10.7726E-03
             732            1606     12.7446E-03     11.4099E-03
             733            1588     12.7571E-03     10.5865E-03
             733            1589     13.1590E-03     10.9863E-03
             733            1606     12.7446E-03     11.4099E-03
             733            1607     13.3328E-03     11.9879E-03
             734            1589     13.1590E-03     10.9863E-03
             734            1590     13.3922E-03     11.2160E-03
             734            1607     13.3328E-03     11.9879E-03
             734            1608     13.7154E-03     12.4293E-03
             735            1590     13.3922E-03     11.2160E-03
             735            1591     13.2213E-03     11.1229E-03
             735            1608     13.7154E-03     12.4293E-03
             735            1609     13.7086E-03     12.5228E-03
             736            1591     13.2213E-03     11.1229E-03
             736            1592     12.6350E-03     10.8047E-03
             736            1609     13.7086E-03     12.5228E-03
             736            1610     13.0124E-03     12.1385E-03
             737             343     11.1154E-03     10.3760E-03
             737             344     12.0422E-03     11.7742E-03
             737            1592     12.6350E-03     10.8047E-03
             737            1610     13.0124E-03     12.1385E-03
             738             452     9.77959E-03     8.73884E-03
             738             453     10.3576E-03     9.74449E-03
             738            1593     6.85456E-03     6.58668E-03
             738            1611     6.99819E-03     6.25676E-03
             739            1593     6.85456E-03     6.58668E-03
             739            1594     5.09142E-03     5.05357E-03
             739            1611     6.99819E-03     6.25676E-03
             739            1612     5.44945E-03     5.15484E-03
             740            1594     5.09142E-03     5.05357E-03
             740            1595     5.62850E-03     4.88090E-03
             740            1612     5.44945E-03     5.15484E-03
             740            1613     5.34340E-03     5.12478E-03
             741            1595     5.62850E-03     4.88090E-03
             741            1596     6.44322E-03     5.33636E-03
             741            1613     5.34340E-03     5.12478E-03
             741            1614     6.02948E-03     5.59024E-03
             742            1596     6.44322E-03     5.33636E-03
             742            1597     7.13880E-03     5.90483E-03
             742            1614     6.02948E-03     5.59024E-03
             742            1615     6.69039E-03     6.18474E-03
             743            1597     7.13880E-03     5.90483E-03
             743            1598     7.77316E-03     6.49141E-03
             743            1615     6.69039E-03     6.18474E-03
             743            1616     7.31236E-03     6.78394E-03
             744            1598     7.77316E-03     6.49141E-03
             744            1599     8.36902E-03     7.07152E-03
             744            1616     7.31236E-03     6.78394E-03
             744            1617     7.93104E-03     7.39387E-03
             745            1599     8.36902E-03     7.07152E-03
             745            1600     8.96985E-03     7.65982E-03
             745            1617     7.93104E-03     7.39387E-03
             745            1618     8.54148E-03     8.00459E-03
             746            1600     8.96985E-03     7.65982E-03
             746            1601     9.57198E-03     8.25473E-03
             746            1618     8.54148E-03     8.00459E-03
             746            1619     9.16431E-03     8.62623E-03
             747            1601     9.57198E-03     8.25473E-03
             747            1602     10.1882E-03     8.86449E-03
             747            1619     9.16431E-03     8.62623E-03
             747            1620     9.79655E-03     9.25858E-03
             748            1602     10.1882E-03     8.86449E-03
             748            1603     10.8192E-03     9.48790E-03
             748            1620     9.79655E-03     9.25858E-03
             748            1621     10.4441E-03     9.90725E-03
             749            1603     10.8192E-03     9.48790E-03
             749            1604     11.4599E-03     10.1266E-03
             749            1621     10.4441E-03     9.90725E-03
             749            1622     11.1099E-03     10.5731E-03
             750            1604     11.4599E-03     10.1266E-03
             750            1605     12.1163E-03     10.7726E-03
             750            1622     11.1099E-03     10.5731E-03
             750            1623     11.7862E-03     11.2564E-03
             751            1605     12.1163E-03     10.7726E-03
             751            1606     12.7446E-03     11.4099E-03
             751            1623     11.7862E-03     11.2564E-03
             751            1624     12.4731E-03     11.9474E-03
             752            1606     12.7446E-03     11.4099E-03
             752            1607     13.3328E-03     11.9879E-03
             752            1624     12.4731E-03     11.9474E-03
             752            1625     13.1148E-03     12.6175E-03
             753            1607     13.3328E-03     11.9879E-03
             753            1608     13.7154E-03     12.4293E-03
             753            1625     13.1148E-03     12.6175E-03
             753            1626     13.6534E-03     13.1907E-03
             754            1608     13.7154E-03     12.4293E-03
             754            1609     13.7086E-03     12.5228E-03
             754            1626     13.6534E-03     13.1907E-03
             754            1627     13.9229E-03     13.5780E-03
             755            1609     13.7086E-03     12.5228E-03
             755            1610     13.0124E-03     12.1385E-03
             755            1627     13.9229E-03     13.5780E-03
             755            1628     13.6659E-03     13.5762E-03
             756             344     12.0422E-03     11.7742E-03
             756             345     14.7542E-03     14.5065E-03
             756            1610     13.0124E-03     12.1385E-03
             756            1628     13.6659E-03     13.5762E-03
             757             451     9.74417E-03     8.89002E-03
             757             452     9.77959E-03     8.73884E-03
             757            1611     6.99819E-03     6.25676E-03
             757            1629     7.17379E-03     6.68423E-03
             758            1611     6.99819E-03     6.25676E-03
             758            1612     5.44945E-03     5.15484E-03
             758            1629     7.17379E-03     6.68423E-03
             758            1630     5.66941E-03     5.58743E-03
             759            1612     5.44945E-03     5.15484E-03
             759            1613     5.34340E-03     5.12478E-03
             759            1630     5.66941E-03     5.58743E-03
             759            1631     5.36467E-03     5.56460E-03
             760            1613     5.34340E-03     5.12478E-03
             760            1614     6.02948E-03     5.59024E-03
             760            1631     5.36467E-03     5.56460E-03
             760            1632     5.67324E-03     5.95932E-03
             761            1614     6.02948E-03     5.59024E-03
             761            1615     6.69039E-03     6.18474E-03
             761            1632     5.67324E-03     5.95932E-03
             761            1633     6.22279E-03     6.48903E-03
             762            1615     6.69039E-03     6.18474E-03
             762            1616     7.31236E-03     6.78394E-03
             762            1633     6.22279E-03     6.48903E-03
             762            1634     6.82892E-03     7.08533E-03
             763            1616     7.31236E-03     6.78394E-03
             763            1617     7.93104E-03     7.39387E-03
             763            1634     6.82892E-03     7.08533E-03
             763            1635     7.44357E-03     7.69628E-03
             764            1617     7.93104E-03     7.39387E-03
             764            1618     8.54148E-03     8.00459E-03
             764            1635     7.44357E-03     7.69628E-03
             764            1636     8.06872E-03     8.32137E-03
             765            1618     8.54148E-03     8.00459E-03
             765            1619     9.16431E-03     8.62623E-03
             765            1636     8.06872E-03     8.32137E-03
             765            1637     8.69737E-03     8.95161E-03
             766            1619     9.16431E-03     8.62623E-03
             766            1620     9.79655E-03     9.25858E-03
             766            1637     8.69737E-03     8.95161E-03
             766            1638     9.33288E-03     9.58899E-03
             767            1620     9.79655E-03     9.25858E-03
             767            1621     10.4441E-03     9.90725E-03
             767            1638     9.33288E-03     9.58899E-03
             767            1639     9.97388E-03     10.2330E-03
             768            1621     10.4441E-03     9.90725E-03
             768            1622     11.1099E-03     10.5731E-03
             768            1639     9.97388E-03     10.2330E-03
             768            1640     10.6242E-03     10.8872E-03
             769            1622     11.1099E-03     10.5731E-03
             769            1623     11.7862E-03     11.2564E-03
             769            1640     10.6242E-03     10.8872E-03
             769            1641     11.2828E-03     11.5550E-03
             770            1623     11.7862E-03     11.2564E-03
             770            1624     12.4731E-03     11.9474E-03
             770            1641     11.2828E-03     11.5550E-03
             770            1642     11.9530E-03     12.2363E-03
             771            1624     12.4731E-03     11.9474E-03
             771            1625     13.1148E-03     12.6175E-03
             771            1642     11.9530E-03     12.2363E-03
             771            1643     12.6257E-03     12.9352E-03
             772            1625     13.1148E-03     12.6175E-03
             772            1626     13.6534E-03     13.1907E-03
             772            1643     12.6257E-03     12.9352E-03
             772            1644     13.2854E-03     13.6271E-03
             773            1626     13.6534E-03     13.1907E-03
             773            1627     13.9229E-03     13.5780E-03
             773            1644     13.2854E-03     13.6271E-03
             773            1645     13.9741E-03     14.3400E-03
             774            1627     13.9229E-03     13.5780E-03
             774            1628     13.6659E-03     13.5762E-03
             774            1645     13.9741E-03     14.3400E-03
             774            1646     15.0018E-03     15.2994E-03
             775             345     14.7542E-03     14.5065E-03
             775             346     17.5312E-03     17.5883E-03
             775            1628     13.6659E-03     13.5762E-03
             775            1646     15.0018E-03     15.2994E-03
             776             450     10.0230E-03     9.14045E-03
             776             451     9.74417E-03     8.89002E-03
             776            1629     7.17379E-03     6.68423E-03
             776            1647     7.53079E-03     7.32336E-03
             777            1629     7.17379E-03     6.68423E-03
             777            1630     5.66941E-03     5.58743E-03
             777            1647     7.53079E-03     7.32336E-03
             777            1648     5.99360E-03     6.32608E-03
             778            1630     5.66941E-03     5.58743E-03
             778            1631     5.36467E-03     5.56460E-03
             778            1648     5.99360E-03     6.32608E-03
             778            1649     5.29760E-03     6.13344E-03
             779            1631     5.36467E-03     5.56460E-03
             779            1632     5.67324E-03     5.95932E-03
             779            1649     5.29760E-03     6.13344E-03
             779            1650     5.32586E-03     6.36556E-03
             780            1632     5.67324E-03     5.95932E-03
             780            1633     6.22279E-03     6.48903E-03
             780            1650     5.32586E-03     6.36556E-03
             780            1651     5.77732E-03     6.83261E-03
             781            1633     6.22279E-03     6.48903E-03
             781            1634     6.82892E-03     7.08533E-03
             781            1651     5.77732E-03     6.83261E-03
             781            1652     6.33951E-03     7.39329E-03
             782            1634     6.82892E-03     7.08533E-03
             782            1635     7.44357E-03     7.69628E-03
             782            1652     6.33951E-03     7.39329E-03
             782            1653     6.94630E-03     7.99987E-03
             783            1635     7.44357E-03     7.69628E-03
             783            1636     8.06872E-03     8.32137E-03
             783            1653     6.94630E-03     7.99987E-03
             783            1654     7.57150E-03     8.62388E-03
             784            1636     8.06872E-03     8.32137E-03
             784            1637     8.69737E-03     8.95161E-03
             784            1654     7.57150E-03     8.62388E-03
             784            1655     8.19870E-03     9.25311E-03
             785            1637     8.69737E-03     8.95161E-03
             785            1638     9.33288E-03     9.58899E-03
             785            1655     8.19870E-03     9.25311E-03
             785            1656     8.82398E-03     9.88033E-03
             786            1638     9.33288E-03     9.58899E-03
             786            1639     9.97388E-03     10.2330E-03
             786            1656     8.82398E-03     9.88033E-03
             786            1657     9.44604E-03     10.5042E-03
             787            1639     9.97388E-03     10.2330E-03
             787            1640     10.6242E-03     10.8872E-03
             787            1657     9.44604E-03     10.5042E-03
             787            1658     10.0616E-03     11.1259E-03
             788            1640     10.6242E-03     10.8872E-03
             788            1641     11.2828E-03     11.5550E-03
             788            1658     10.0616E-03     11.1259E-03
             788            1659     10.6835E-03     11.7513E-03
             789            1641     11.2828E-03     11.5550E-03
             789            1642     11.9530E-03     12.2363E-03
             789            1659     10.6835E-03     11.7513E-03
             789            1660     11.3118E-03     12.3975E-03
             790            1642     11.9530E-03     12.2363E-03
             790            1643     12.6257E-03     12.9352E-03
             790            1660     11.3118E-03     12.3975E-03
             790            1661     11.9942E-03     13.0882E-03
             791            1643     12.6257E-03     12.9352E-03
             791            1644     13.2854E-03     13.6271E-03
             791            1661     11.9942E-03     13.0882E-03
             791            1662     12.7882E-03     13.9032E-03
             792            1644     13.2854E-03     13.6271E-03
             792            1645     13.9741E-03     14.3400E-03
             792            1662     12.7882E-03     13.9032E-03
             792            1663     13.8571E-03     14.9517E-03
             793            1645     13.9741E-03     14.3400E-03
             793            1646     15.0018E-03     15.2994E-03
             793            1663     13.8571E-03     14.9517E-03
             793            1664     16.0496E-03     16.8115E-03
             794             346     17.5312E-03     17.5883E-03
             794             347     20.1779E-03     20.4215E-03
             794            1646     15.0018E-03     15.2994E-03
             794            1664     16.0496E-03     16.8115E-03
             795             449     10.9376E-03     10.3807E-03
             795             450     10.0230E-03     9.14045E-03
             795            1647     7.53079E-03     7.32336E-03
             795            1665     8.29693E-03     8.49134E-03
             796            1647     7.53079E-03     7.32336E-03
             796            1648     5.99360E-03     6.32608E-03
             796            1665     8.29693E-03     8.49134E-03
             796            1666     5.99327E-03     7.26238E-03
             797            1648     5.99360E-03     6.32608E-03
             797            1649     5.29760E-03     6.13344E-03
             797            1666     5.99327E-03     7.26238E-03
             797            1667     4.95681E-03     6.70262E-03
             798            1649     5.29760E-03     6.13344E-03
             798            1650     5.32586E-03     6.36556E-03
             798            1667     4.95681E-03     6.70262E-03
             798            1668     4.99526E-03     6.80886E-03
             799            1650     5.32586E-03     6.36556E-03
             799            1651     5.77732E-03     6.83261E-03
             799            1668     4.99526E-03     6.80886E-03
             799            1669     5.35601E-03     7.20553E-03
             800            1651     5.77732E-03     6.83261E-03
             800            1652     6.33951E-03     7.39329E-03
             800            1669     5.35601E-03     7.20553E-03
             800            1670     5.87637E-03     7.72980E-03
             801            1652     6.33951E-03     7.39329E-03
             801            1653     6.94630E-03     7.99987E-03
             801            1670     5.87637E-03     7.72980E-03
             801            1671     6.46914E-03     8.32281E-03
             802            1653     6.94630E-03     7.99987E-03
             802            1654     7.57150E-03     8.62388E-03
             802            1671     6.46914E-03     8.32281E-03
             802            1672     7.08042E-03     8.93747E-03
             803            1654     7.57150E-03     8.62388E-03
             803            1655     8.19870E-03     9.25311E-03
             803            1672     7.08042E-03     8.93747E-03
             803            1673     7.69910E-03     9.55694E-03
             804            1655     8.19870E-03     9.25311E-03
             804            1656     8.82398E-03     9.88033E-03
             804            1673     7.69910E-03     9.55694E-03
             804            1674     8.30978E-03     10.1696E-03
             805            1656     8.82398E-03     9.88033E-03
             805            1657     9.44604E-03     10.5042E-03
             805            1674     8.30978E-03     10.1696E-03
             805            1675     8.90920E-03     10.7715E-03
             806            1657     9.44604E-03     10.5042E-03
             806            1658     10.0616E-03     11.1259E-03
             806            1675     8.90920E-03     10.7715E-03
             806            1676     9.50171E-03     11.3636E-03
             807            1658     10.0616E-03     11.1259E-03
             807            1659     10.6835E-03     11.7513E-03
             807            1676     9.50171E-03     11.3636E-03
             807            1677     10.0870E-03     11.9550E-03
             808            1659     10.6835E-03     11.7513E-03
             808            1660     11.3118E-03     12.3975E-03
             808            1677     10.0870E-03     11.9550E-03
             808            1678     10.7043E-03     12.5716E-03
             809            1660     11.3118E-03     12.3975E-03
             809            1661     11.9942E-03     13.0882E-03
             809            1678     10.7043E-03     12.5716E-03
             809            1679     11.3943E-03     13.2717E-03
             810            1661     11.9942E-03     13.0882E-03
             810            1662     12.7882E-03     13.9032E-03
             810            1679     11.3943E-03     13.2717E-03
             810            1680     12.3028E-03     14.1797E-03
             811            1662     12.7882E-03     13.9032E-03
             811            1663     13.8571E-03     14.9517E-03
             811            1680     12.3028E-03     14.1797E-03
             811            1681     13.7197E-03     15.5593E-03
             812            1663     13.8571E-03     14.9517E-03
             812            1664     16.0496E-03     16.8115E-03
             812            1681     13.7197E-03     15.5593E-03
             812            1682     16.1363E-03     17.8913E-03
             813             347     20.1779E-03     20.4215E-03
             813             348     21.5828E-03     22.6211E-03
             813            1664     16.0496E-03     16.8115E-03
             813            1682     16.1363E-03     17.8913E-03
             814             448     12.5395E-03     13.0905E-03
             814             449     10.9376E-03     10.3807E-03
             814            1665     8.29693E-03     8.49134E-03
             814            1683     8.17171E-03     10.5192E-03
             815            1665     8.29693E-03     8.49134E-03
             815            1666     5.99327E-03     7.26238E-03
             815            1683     8.17171E-03     10.5192E-03
             815            1684     5.35099E-03     8.02123E-03
             816            1666     5.99327E-03     7.26238E-03
             816            1667     4.95681E-03     6.70262E-03
             816            1684     5.35099E-03     8.02123E-03
             816            1685     4.65129E-03     7.27236E-03
             817            1667     4.95681E-03     6.70262E-03
             817            1668     4.99526E-03     6.80886E-03
             817            1685     4.65129E-03     7.27236E-03
             817            1686     4.66787E-03     7.29892E-03
             818            1668     4.99526E-03     6.80886E-03
             818            1669     5.35601E-03     7.20553E-03
             818            1686     4.66787E-03     7.29892E-03
             818            1687     4.98403E-03     7.61985E-03
             819            1669     5.35601E-03     7.20553E-03
             819            1670     5.87637E-03     7.72980E-03
             819            1687     4.98403E-03     7.61985E-03
             819            1688     5.47176E-03     8.11895E-03
             820            1670     5.87637E-03     7.72980E-03
             820            1671     6.46914E-03     8.32281E-03
             820            1688     5.47176E-03     8.11895E-03
             820            1689     6.02841E-03     8.68271E-03
             821            1671     6.46914E-03     8.32281E-03
             821            1672     7.08042E-03     8.93747E-03
             821            1689     6.02841E-03     8.68271E-03
             821            1690     6.62330E-03     9.28105E-03
             822            1672     7.08042E-03     8.93747E-03
             822            1673     7.69910E-03     9.55694E-03
             822            1690     6.62330E-03     9.28105E-03
             822            1691     7.22142E-03     9.88332E-03
             823            1673     7.69910E-03     9.55694E-03
             823            1674     8.30978E-03     10.1696E-03
             823            1691     7.22142E-03     9.88332E-03
             823            1692     7.81820E-03     10.4822E-03
             824            1674     8.30978E-03     10.1696E-03
             824            1675     8.90920E-03     10.7715E-03
             824            1692     7.81820E-03     10.4822E-03
             824            1693     8.40769E-03     11.0721E-03
             825            1675     8.90920E-03     10.7715E-03
             825            1676     9.50171E-03     11.3636E-03
             825            1693     8.40769E-03     11.0721E-03
             825            1694     8.99023E-03     11.6555E-03
             826            1676     9.50171E-03     11.3636E-03
             826            1677     10.0870E-03     11.9550E-03
             826            1694     8.99023E-03     11.6555E-03
             826            1695     9.58911E-03     12.2472E-03
             827            1677     10.0870E-03     11.9550E-03
             827            1678     10.7043E-03     12.5716E-03
             827            1695     9.58911E-03     12.2472E-03
             827            1696     10.2267E-03     12.8802E-03
             828            1678     10.7043E-03     12.5716E-03
             828            1679     11.3943E-03     13.2717E-03
             828            1696     10.2267E-03     12.8802E-03
             828            1697     11.0017E-03     13.6357E-03
             829            1679     11.3943E-03     13.2717E-03
             829            1680     12.3028E-03     14.1797E-03
             829            1697     11.0017E-03     13.6357E-03
             829            1698     12.0414E-03     14.6618E-03
             830            1680     12.3028E-03     14.1797E-03
             830            1681     13.7197E-03     15.5593E-03
             830            1698     12.0414E-03     14.6618E-03
             830            1699     13.6630E-03     16.2859E-03
             831            1681     13.7197E-03     15.5593E-03
             831            1682     16.1363E-03     17.8913E-03
             831            1699     13.6630E-03     16.2859E-03
             831            1700     16.3046E-03     18.9760E-03
             832             348     21.5828E-03     22.6211E-03
             832             349     21.1403E-03     24.0706E-03
             832            1682     16.1363E-03     17.8913E-03
             832            1700     16.3046E-03     18.9760E-03
             833             447     13.2861E-03     15.7216E-03
             833             448     12.5395E-03     13.0905E-03
             833            1683     8.17171E-03     10.5192E-03
             833            1701     10.6140E-03     13.1024E-03
             834            1683     8.17171E-03     10.5192E-03
             834            1684     5.35099E-03     8.02123E-03
             834            1701     10.6140E-03     13.1024E-03
             834            1702     10.2987E-03     11.3782E-03
             835            1684     5.35099E-03     8.02123E-03
             835            1685     4.65129E-03     7.27236E-03
             835            1702     10.2987E-03     11.3782E-03
             835            1703     10.9036E-03     11.7539E-03
             836            1685     4.65129E-03     7.27236E-03
             836            1686     4.66787E-03     7.29892E-03
             836            1703     10.9036E-03     11.7539E-03
             836            1704     11.7592E-03     12.6324E-03
             837            1686     4.66787E-03     7.29892E-03
             837            1687     4.98403E-03     7.61985E-03
             837            1704     11.7592E-03     12.6324E-03
             837            1705     12.8395E-03     13.7254E-03
             838            1687     4.98403E-03     7.61985E-03
             838            1688     5.47176E-03     8.11895E-03
             838            1705     12.8395E-03     13.7254E-03
             838            1706     13.9936E-03     14.8952E-03
             839            1688     5.47176E-03     8.11895E-03
             839            1689     6.02841E-03     8.68271E-03
             839            1706     13.9936E-03     14.8952E-03
             839            1707     15.2013E-03     16.1023E-03
             840            1689     6.02841E-03     8.68271E-03
             840            1690     6.62330E-03     9.28105E-03
             840            1707     15.2013E-03     16.1023E-03
             840            1708     16.4141E-03     17.3062E-03
             841            1690     6.62330E-03     9.28105E-03
             841            1691     7.22142E-03     9.88332E-03
             841            1708     16.4141E-03     17.3062E-03
             841            1709     17.6251E-03     18.5050E-03
             842            1691     7.22142E-03     9.88332E-03
             842            1692     7.81820E-03     10.4822E-03
             842            1709     17.6251E-03     18.5050E-03
             842            1710     18.8192E-03     19.6796E-03
             843            1692     7.81820E-03     10.4822E-03
             843            1693     8.40769E-03     11.0721E-03
             843            1710     18.8192E-03     19.6796E-03
             843            1711     19.9882E-03     20.8283E-03
             844            1693     8.40769E-03     11.0721E-03
             844            1694     8.99023E-03     11.6555E-03
             844            1711     19.9882E-03     20.8283E-03
             844            1712     21.1315E-03     21.9381E-03
             845            1694     8.99023E-03     11.6555E-03
             845            1695     9.58911E-03     12.2472E-03
             845            1712     21.1315E-03     21.9381E-03
             845            1713     22.2321E-03     23.0028E-03
             846            1695     9.58911E-03     12.2472E-03
             846            1696     10.2267E-03     12.8802E-03
             846            1713     22.2321E-03     23.0028E-03
             846            1714     23.3159E-03     24.0190E-03
             847            1696     10.2267E-03     12.8802E-03
             847            1697     11.0017E-03     13.6357E-03
             847            1714     23.3159E-03     24.0190E-03
             847            1715     24.3553E-03     24.9965E-03
             848            1697     11.0017E-03     13.6357E-03
             848            1698     12.0414E-03     14.6618E-03
             848            1715     24.3553E-03     24.9965E-03
             848            1716     25.4647E-03     25.9713E-03
             849            1698     12.0414E-03     14.6618E-03
             849            1699     13.6630E-03     16.2859E-03
             849            1716     25.4647E-03     25.9713E-03
             849            1717     26.5882E-03     27.0401E-03
             850            1699     13.6630E-03     16.2859E-03
             850            1700     16.3046E-03     18.9760E-03
             850            1717     26.5882E-03     27.0401E-03
             850            1718     28.0931E-03     28.4073E-03
             851             349     21.1403E-03     24.0706E-03
             851             350     29.7566E-03     30.3253E-03
             851            1700     16.3046E-03     18.9760E-03
             851            1718     28.0931E-03     28.4073E-03
             852             446     13.6318E-03     16.1386E-03
             852             447     13.2861E-03     15.7216E-03
             852            1701     10.6140E-03     13.1024E-03
             852            1719     13.1047E-03     14.4345E-03
             853            1701     10.6140E-03     13.1024E-03
             853            1702     10.2987E-03     11.3782E-03
             853            1719     13.1047E-03     14.4345E-03
             853            1720     14.8279E-03     14.4451E-03
             854            1702     10.2987E-03     11.3782E-03
             854            1703     10.9036E-03     11.7539E-03
             854            1720     14.8279E-03     14.4451E-03
             854            1721     16.8732E-03     15.9369E-03
             855            1703     10.9036E-03     11.7539E-03
             855            1704     11.7592E-03     12.6324E-03
             855            1721     16.8732E-03     15.9369E-03
             855            1722     18.8395E-03     17.8089E-03
             856            1704     11.7592E-03     12.6324E-03
             856            1705     12.8395E-03     13.7254E-03
             856            1722     18.8395E-03     17.8089E-03
             856            1723     20.7774E-03     19.7381E-03
             857            1705     12.8395E-03     13.7254E-03
             857            1706     13.9936E-03     14.8952E-03
             857            1723     20.7774E-03     19.7381E-03
             857            1724     22.7060E-03     21.6660E-03
             858            1706     13.9936E-03     14.8952E-03
             858            1707     15.2013E-03     16.1023E-03
             858            1724     22.7060E-03     21.6660E-03
             858            1725     24.6133E-03     23.5677E-03
             859            1707     15.2013E-03     16.1023E-03
             859            1708     16.4141E-03     17.3062E-03
             859            1725     24.6133E-03     23.5677E-03
             859            1726     26.5090E-03     25.4476E-03
             860            1708     16.4141E-03     17.3062E-03
             860            1709     17.6251E-03     18.5050E-03
             860            1726     26.5090E-03     25.4476E-03
             860            1727     28.3863E-03     27.3042E-03
             861            1709     17.6251E-03     18.5050E-03
             861            1710     18.8192E-03     19.6796E-03
             861            1727     28.3863E-03     27.3042E-03
             861            1728     30.2457E-03     29.1339E-03
             862            1710     18.8192E-03     19.6796E-03
             862            1711     19.9882E-03     20.8283E-03
             862            1728     30.2457E-03     29.1339E-03
             862            1729     32.0747E-03     30.9305E-03
             863            1711     19.9882E-03     20.8283E-03
             863            1712     21.1315E-03     21.9381E-03
             863            1729     32.0747E-03     30.9305E-03
             863            1730     33.8631E-03     32.6721E-03
             864            1712     21.1315E-03     21.9381E-03
             864            1713     22.2321E-03     23.0028E-03
             864            1730     33.8631E-03     32.6721E-03
             864            1731     35.5785E-03     34.3369E-03
             865            1713     22.2321E-03     23.0028E-03
             865            1714     23.3159E-03     24.0190E-03
             865            1731     35.5785E-03     34.3369E-03
             865            1732     37.1855E-03     35.8726E-03
             866            1714     23.3159E-03     24.0190E-03
             866            1715     24.3553E-03     24.9965E-03
             866            1732     37.1855E-03     35.8726E-03
             866            1733     38.6120E-03     37.2186E-03
             867            1715     24.3553E-03     24.9965E-03
             867            1716     25.4647E-03     25.9713E-03
             867            1733     38.6120E-03     37.2186E-03
             867            1734     39.7642E-03     38.2776E-03
             868            1716     25.4647E-03     25.9713E-03
             868            1717     26.5882E-03     27.0401E-03
             868            1734     39.7642E-03     38.2776E-03
             868            1735     40.4661E-03     38.8823E-03
             869            1717     26.5882E-03     27.0401E-03
             869            1718     28.0931E-03     28.4073E-03
             869            1735     40.4661E-03     38.8823E-03
             869            1736     40.5383E-03     38.9007E-03
             870             350     29.7566E-03     30.3253E-03
             870             351     39.2887E-03     37.7399E-03
             870            1718     28.0931E-03     28.4073E-03
             870            1736     40.5383E-03     38.9007E-03
             871             445     13.7152E-03     13.9452E-03
             871             446     13.6318E-03     16.1386E-03
             871            1719     13.1047E-03     14.4345E-03
             871            1737     12.4782E-03     13.5852E-03
             872            1719     13.1047E-03     14.4345E-03
             872            1720     14.8279E-03     14.4451E-03
             872            1737     12.4782E-03     13.5852E-03
             872            1738     13.7465E-03     14.4977E-03
             873            1720     14.8279E-03     14.4451E-03
             873            1721     16.8732E-03     15.9369E-03
             873            1738     13.7465E-03     14.4977E-03
             873            1739     16.1982E-03     16.0744E-03
             874            1721     16.8732E-03     15.9369E-03
             874            1722     18.8395E-03     17.8089E-03
             874            1739     16.1982E-03     16.0744E-03
             874            1740     18.4898E-03     18.0400E-03
             875            1722     18.8395E-03     17.8089E-03
             875            1723     20.7774E-03     19.7381E-03
             875            1740     18.4898E-03     18.0400E-03
             875            1741     20.6208E-03     20.0639E-03
             876            1723     20.7774E-03     19.7381E-03
             876            1724     22.7060E-03     21.6660E-03
             876            1741     20.6208E-03     20.0639E-03
             876            1742     22.6648E-03     22.0668E-03
             877            1724     22.7060E-03     21.6660E-03
             877            1725     24.6133E-03     23.5677E-03
             877            1742     22.6648E-03     22.0668E-03
             877            1743     24.6570E-03     24.0482E-03
             878            1725     24.6133E-03     23.5677E-03
             878            1726     26.5090E-03     25.4476E-03
             878            1743     24.6570E-03     24.0482E-03
             878            1744     26.6292E-03     26.0117E-03
             879            1726     26.5090E-03     25.4476E-03
             879            1727     28.3863E-03     27.3042E-03
             879            1744     26.6292E-03     26.0117E-03
             879            1745     28.5925E-03     27.9669E-03
             880            1727     28.3863E-03     27.3042E-03
             880            1728     30.2457E-03     29.1339E-03
             880            1745     28.5925E-03     27.9669E-03
             880            1746     30.5543E-03     29.9194E-03
             881            1728     30.2457E-03     29.1339E-03
             881            1729     32.0747E-03     30.9305E-03
             881            1746     30.5543E-03     29.9194E-03
             881            1747     32.5150E-03     31.8652E-03
             882            1729     32.0747E-03     30.9305E-03
             882            1730     33.8631E-03     32.6721E-03
             882            1747     32.5150E-03     31.8652E-03
             882            1748     34.4592E-03     33.7987E-03
             883            1730     33.8631E-03     32.6721E-03
             883            1731     35.5785E-03     34.3369E-03
             883            1748     34.4592E-03     33.7987E-03
             883            1749     36.3723E-03     35.6936E-03
             884            1731     35.5785E-03     34.3369E-03
             884            1732     37.1855E-03     35.8726E-03
             884            1749     36.3723E-03     35.6936E-03
             884            1750     38.1984E-03     37.5175E-03
             885            1732     37.1855E-03     35.8726E-03
             885            1733     38.6120E-03     37.2186E-03
             885            1750     38.1984E-03     37.5175E-03
             885            1751     39.8697E-03     39.1924E-03
             886            1733     38.6120E-03     37.2186E-03
             886            1734     39.7642E-03     38.2776E-03
             886            1751     39.8697E-03     39.1924E-03
             886            1752     41.2500E-03     40.6150E-03
             887            1734     39.7642E-03     38.2776E-03
             887            1735     40.4661E-03     38.8823E-03
             887            1752     41.2500E-03     40.6150E-03
             887            1753     42.1236E-03     41.6075E-03
             888            1735     40.4661E-03     38.8823E-03
             888            1736     40.5383E-03     38.9007E-03
             888            1753     42.1236E-03     41.6075E-03
             888            1754     42.2467E-03     41.9363E-03
             889             351     39.2887E-03     37.7399E-03
             889             352     41.2068E-03     41.2907E-03
             889            1736     40.5383E-03     38.9007E-03
             889            1754     42.2467E-03     41.9363E-03
             890             444     12.9431E-03     12.5391E-03
             890             445     13.7152E-03     13.9452E-03
             890            1737     12.4782E-03     13.5852E-03
             890            1755     12.3204E-03     12.9231E-03
             891            1737     12.4782E-03     13.5852E-03
             891            1738     13.7465E-03     14.4977E-03
             891            1755     12.3204E-03     12.9231E-03
             891            1756     13.5842E-03     14.5098E-03
             892            1738     13.7465E-03     14.4977E-03
             892            1739     16.1982E-03     16.0744E-03
             892            1756     13.5842E-03     14.5098E-03
             892            1757     15.8195E-03     16.3851E-03
             893            1739     16.1982E-03     16.0744E-03
             893            1740     18.4898E-03     18.0400E-03
             893            1757     15.8195E-03     16.3851E-03
             893            1758     18.2291E-03     18.3806E-03
             894            1740     18.4898E-03     18.0400E-03
             894            1741     20.6208E-03     20.0639E-03
             894            1758     18.2291E-03     18.3806E-03
             894            1759     20.4537E-03     20.4335E-03
             895            1741     20.6208E-03     20.0639E-03
             895            1742     22.6648E-03     22.0668E-03
             895            1759     20.4537E-03     20.4335E-03
             895            1760     22.5646E-03     22.4639E-03
             896            1742     22.6648E-03     22.0668E-03
             896            1743     24.6570E-03     24.0482E-03
             896            1760     22.5646E-03     22.4639E-03
             896            1761     24.6158E-03     24.4828E-03
             897            1743     24.6570E-03     24.0482E-03
             897            1744     26.6292E-03     26.0117E-03
             897            1761     24.6158E-03     24.4828E-03
             897            1762     26.6376E-03     26.4944E-03
             898            1744     26.6292E-03     26.0117E-03
             898            1745     28.5925E-03     27.9669E-03
             898            1762     26.6376E-03     26.4944E-03
             898            1763     28.6605E-03     28.5146E-03
             899            1745     28.5925E-03     27.9669E-03
             899            1746     30.5543E-03     29.9194E-03
             899            1763     28.6605E-03     28.5146E-03
             899            1764     30.6903E-03     30.5457E-03
             900            1746     30.5543E-03     29.9194E-03
             900            1747     32.5150E-03     31.8652E-03
             900            1764     30.6903E-03     30.5457E-03
             900            1765     32.7304E-03     32.5934E-03
             901            1747     32.5150E-03     31.8652E-03
             901            1748     34.4592E-03     33.7987E-03
             901            1765     32.7304E-03     32.5934E-03
             901            1766     34.7796E-03     34.6509E-03
             902            1748     34.4592E-03     33.7987E-03
             902            1749     36.3723E-03     35.6936E-03
             902            1766     34.7796E-03     34.6509E-03
             902            1767     36.8102E-03     36.7079E-03
             903            1749     36.3723E-03     35.6936E-03
             903            1750     38.1984E-03     37.5175E-03
             903            1767     36.8102E-03     36.7079E-03
             903            1768     38.7984E-03     38.7280E-03
             904            1750     38.1984E-03     37.5175E-03
             904            1751     39.8697E-03     39.1924E-03
             904            1768     38.7984E-03     38.7280E-03
             904            1769     40.6561E-03     40.6616E-03
             905            1751     39.8697E-03     39.1924E-03
             905            1752     41.2500E-03     40.6150E-03
             905            1769     40.6561E-03     40.6616E-03
             905            1770     42.2595E-03     42.3810E-03
             906            1752     41.2500E-03     40.6150E-03
             906            1753     42.1236E-03     41.6075E-03
             906            1770     42.2595E-03     42.3810E-03
             906            1771     43.4614E-03     43.7575E-03
             907            1753     42.1236E-03     41.6075E-03
             907            1754     42.2467E-03     41.9363E-03
             907            1771     43.4614E-03     43.7575E-03
             907            1772     43.9632E-03     44.5384E-03
             908             352     41.2068E-03     41.2907E-03
             908             353     44.4727E-03     45.0698E-03
             908            1754     42.2467E-03     41.9363E-03
             908            1772     43.9632E-03     44.5384E-03
             909             443     12.6623E-03     12.4350E-03
             909             444     12.9431E-03     12.5391E-03
             909            1755     12.3204E-03     12.9231E-03
             909            1773     12.3677E-03     13.2309E-03
             910            1755     12.3204E-03     12.9231E-03
             910            1756     13.5842E-03     14.5098E-03
             910            1773     12.3677E-03     13.2309E-03
             910            1774     13.7830E-03     14.7165E-03
             911            1756     13.5842E-03     14.5098E-03
             911            1757     15.8195E-03     16.3851E-03
             911            1774     13.7830E-03     14.7165E-03
             911            1775     15.8544E-03     16.7657E-03
             912            1757     15.8195E-03     16.3851E-03
             912            1758     18.2291E-03     18.3806E-03
             912            1775     15.8544E-03     16.7657E-03
             912            1776     18.1008E-03     18.7838E-03
             913            1758     18.2291E-03     18.3806E-03
             913            1759     20.4537E-03     20.4335E-03
             913            1776     18.1008E-03     18.7838E-03
             913            1777     20.3045E-03     20.7958E-03
             914            1759     20.4537E-03     20.4335E-03
             914            1760     22.5646E-03     22.4639E-03
             914            1777     20.3045E-03     20.7958E-03
             914            1778     22.4081E-03     22.8114E-03
             915            1760     22.5646E-03     22.4639E-03
             915            1761     24.6158E-03     24.4828E-03
             915            1778     22.4081E-03     22.8114E-03
             915            1779     24.4608E-03     24.8194E-03
             916            1761     24.6158E-03     24.4828E-03
             916            1762     26.6376E-03     26.4944E-03
             916            1779     24.4608E-03     24.8194E-03
             916            1780     26.5036E-03     26.8474E-03
             917            1762     26.6376E-03     26.4944E-03
             917            1763     28.6605E-03     28.5146E-03
             917            1780     26.5036E-03     26.8474E-03
             917            1781     28.5455E-03     28.8888E-03
             918            1763     28.6605E-03     28.5146E-03
             918            1764     30.6903E-03     30.5457E-03
             918            1781     28.5455E-03     28.8888E-03
             918            1782     30.6028E-03     30.9560E-03
             919            1764     30.6903E-03     30.5457E-03
             919            1765     32.7304E-03     32.5934E-03
             919            1782     30.6028E-03     30.9560E-03
             919            1783     32.6781E-03     33.0482E-03
             920            1765     32.7304E-03     32.5934E-03
             920            1766     34.7796E-03     34.6509E-03
             920            1783     32.6781E-03     33.0482E-03
             920            1784     34.7672E-03     35.1679E-03
             921            1766     34.7796E-03     34.6509E-03
             921            1767     36.8102E-03     36.7079E-03
             921            1784     34.7672E-03     35.1679E-03
             921            1785     36.8706E-03     37.3102E-03
             922            1767     36.8102E-03     36.7079E-03
             922            1768     38.7984E-03     38.7280E-03
             922            1785     36.8706E-03     37.3102E-03
             922            1786     38.9522E-03     39.4608E-03
             923            1768     38.7984E-03     38.7280E-03
             923            1769     40.6561E-03     40.6616E-03
             923            1786     38.9522E-03     39.4608E-03
             923            1787     40.9922E-03     41.5799E-03
             924            1769     40.6561E-03     40.6616E-03
             924            1770     42.2595E-03     42.3810E-03
             924            1787     40.9922E-03     41.5799E-03
             924            1788     42.8986E-03     43.6158E-03
             925            1770     42.2595E-03     42.3810E-03
             925            1771     43.4614E-03     43.7575E-03
             925            1788     42.8986E-03     43.6158E-03
             925            1789     44.5502E-03     45.4204E-03
             926            1771     43.4614E-03     43.7575E-03
             926            1772     43.9632E-03     44.5384E-03
             926            1789     44.5502E-03     45.4204E-03
             926            1790     46.0693E-03     46.9877E-03
             927             353     44.4727E-03     45.0698E-03
             927             354     47.8970E-03     48.6928E-03
             927            1772     43.9632E-03     44.5384E-03
             927            1790     46.0693E-03     46.9877E-03
             928             442     12.7466E-03     12.2578E-03
             928             443     12.6623E-03     12.4350E-03
             928            1773     12.3677E-03     13.2309E-03
             928            1791     12.7755E-03     13.7339E-03
             929            1773     12.3677E-03     13.2309E-03
             929            1774     13.7830E-03     14.7165E-03
             929            1791     12.7755E-03     13.7339E-03
             929            1792     14.1823E-03     15.3778E-03
             930            1774     13.7830E-03     14.7165E-03
             930            1775     15.8544E-03     16.7657E-03
             930            1792     14.1823E-03     15.3778E-03
             930            1793     16.0895E-03     17.2434E-03
             931            1775     15.8544E-03     16.7657E-03
             931            1776     18.1008E-03     18.7838E-03
             931            1793     16.0895E-03     17.2434E-03
             931            1794     18.1280E-03     19.2069E-03
             932            1776     18.1008E-03     18.7838E-03
             932            1777     20.3045E-03     20.7958E-03
             932            1794     18.1280E-03     19.2069E-03
             932            1795     20.1714E-03     21.1335E-03
             933            1777     20.3045E-03     20.7958E-03
             933            1778     22.4081E-03     22.8114E-03
             933            1795     20.1714E-03     21.1335E-03
             933            1796     22.1871E-03     23.0701E-03
             934            1778     22.4081E-03     22.8114E-03
             934            1779     24.4608E-03     24.8194E-03
             934            1796     22.1871E-03     23.0701E-03
             934            1797     24.2054E-03     25.0520E-03
             935            1779     24.4608E-03     24.8194E-03
             935            1780     26.5036E-03     26.8474E-03
             935            1797     24.2054E-03     25.0520E-03
             935            1798     26.2227E-03     27.0539E-03
             936            1780     26.5036E-03     26.8474E-03
             936            1781     28.5455E-03     28.8888E-03
             936            1798     26.2227E-03     27.0539E-03
             936            1799     28.2549E-03     29.0884E-03
             937            1781     28.5455E-03     28.8888E-03
             937            1782     30.6028E-03     30.9560E-03
             937            1799     28.2549E-03     29.0884E-03
             937            1800     30.3013E-03     31.1474E-03
             938            1782     30.6028E-03     30.9560E-03
             938            1783     32.6781E-03     33.0482E-03
             938            1800     30.3013E-03     31.1474E-03
             938            1801     32.3670E-03     33.2368E-03
             939            1783     32.6781E-03     33.0482E-03
             939            1784     34.7672E-03     35.1679E-03
             939            1801     32.3670E-03     33.2368E-03
             939            1802     34.4572E-03     35.3614E-03
             940            1784     34.7672E-03     35.1679E-03
             940            1785     36.8706E-03     37.3102E-03
             940            1802     34.4572E-03     35.3614E-03
             940            1803     36.5704E-03     37.5253E-03
             941            1785     36.8706E-03     37.3102E-03
             941            1786     38.9522E-03     39.4608E-03
             941            1803     36.5704E-03     37.5253E-03
             941            1804     38.7253E-03     39.7406E-03
             942            1786     38.9522E-03     39.4608E-03
             942            1787     40.9922E-03     41.5799E-03
             942            1804     38.7253E-03     39.7406E-03
             942            1805     40.9038E-03     42.0055E-03
             943            1787     40.9922E-03     41.5799E-03
             943            1788     42.8986E-03     43.6158E-03
             943            1805     40.9038E-03     42.0055E-03
             943            1806     43.1678E-03     44.3258E-03
             944            1788     42.8986E-03     43.6158E-03
             944            1789     44.5502E-03     45.4204E-03
             944            1806     43.1678E-03     44.3258E-03
             944            1807     45.4990E-03     46.7160E-03
             945            1789     44.5502E-03     45.4204E-03
             945            1790     46.0693E-03     46.9877E-03
             945            1807     45.4990E-03     46.7160E-03
             945            1808     48.0288E-03     49.1979E-03
             946             354     47.8970E-03     48.6928E-03
             946             355     51.1075E-03     51.9898E-03
             946            1790     46.0693E-03     46.9877E-03
             946            1808     48.0288E-03     49.1979E-03
             947             441     13.1486E-03     12.8414E-03
             947             442     12.7466E-03     12.2578E-03
             947            1791     12.7755E-03     13.7339E-03
             947            1809     13.4311E-03     14.6411E-03
             948            1791     12.7755E-03     13.7339E-03
             948            1792     14.1823E-03     15.3778E-03
             948            1809     13.4311E-03     14.6411E-03
             948            1810     14.8015E-03     16.1960E-03
             949            1792     14.1823E-03     15.3778E-03
             949            1793     16.0895E-03     17.2434E-03
             949            1810     14.8015E-03     16.1960E-03
             949            1811     16.4615E-03     17.9191E-03
             950            1793     16.0895E-03     17.2434E-03
             950            1794     18.1280E-03     19.2069E-03
             950            1811     16.4615E-03     17.9191E-03
             950            1812     18.2200E-03     19.6340E-03
             951            1794     18.1280E-03     19.2069E-03
             951            1795     20.1714E-03     21.1335E-03
             951            1812     18.2200E-03     19.6340E-03
             951            1813     20.0168E-03     21.4004E-03
             952            1795     20.1714E-03     21.1335E-03
             952            1796     22.1871E-03     23.0701E-03
             952            1813     20.0168E-03     21.4004E-03
             952            1814     21.9219E-03     23.2649E-03
             953            1796     22.1871E-03     23.0701E-03
             953            1797     24.2054E-03     25.0520E-03
             953            1814     21.9219E-03     23.2649E-03
             953            1815     23.8608E-03     25.1811E-03
             954            1797     24.2054E-03     25.0520E-03
             954            1798     26.2227E-03     27.0539E-03
             954            1815     23.8608E-03     25.1811E-03
             954            1816     25.8334E-03     27.1482E-03
             955            1798     26.2227E-03     27.0539E-03
             955            1799     28.2549E-03     29.0884E-03
             955            1816     25.8334E-03     27.1482E-03
             955            1817     27.8253E-03     29.1440E-03
             956            1799     28.2549E-03     29.0884E-03
             956            1800     30.3013E-03     31.1474E-03
             956            1817     27.8253E-03     29.1440E-03
             956            1818     29.8345E-03     31.1668E-03
             957            1800     30.3013E-03     31.1474E-03
             957            1801     32.3670E-03     33.2368E-03
             957            1818     29.8345E-03     31.1668E-03
             957            1819     31.8611E-03     33.2159E-03
             958            1801     32.3670E-03     33.2368E-03
             958            1802     34.4572E-03     35.3614E-03
             958            1819     31.8611E-03     33.2159E-03
             958            1820     33.9128E-03     35.2981E-03
             959            1802     34.4572E-03     35.3614E-03
             959            1803     36.5704E-03     37.5253E-03
             959            1820     33.9128E-03     35.2981E-03
             959            1821     36.0073E-03     37.4359E-03
             960            1803     36.5704E-03     37.5253E-03
             960            1804     38.7253E-03     39.7406E-03
             960            1821     36.0073E-03     37.4359E-03
             960            1822     38.1709E-03     39.6508E-03
             961            1804     38.7253E-03     39.7406E-03
             961            1805     40.9038E-03     42.0055E-03
             961            1822     38.1709E-03     39.6508E-03
             961            1823     40.4808E-03     42.0078E-03
             962            1805     40.9038E-03     42.0055E-03
             962            1806     43.1678E-03     44.3258E-03
             962            1823     40.4808E-03     42.0078E-03
             962            1824     42.9913E-03     44.5608E-03
             963            1806     43.1678E-03     44.3258E-03
             963            1807     45.4990E-03     46.7160E-03
             963            1824     42.9913E-03     44.5608E-03
             963            1825     46.0279E-03     47.4919E-03
             964            1807     45.4990E-03     46.7160E-03
             964            1808     48.0288E-03     49.1979E-03
             964            1825     46.0279E-03     47.4919E-03
             964            1826     49.6378E-03     50.9595E-03
             965             355     51.1075E-03     51.9898E-03
             965             356     53.8895E-03     55.0688E-03
             965            1808     48.0288E-03     49.1979E-03
             965            1826     49.6378E-03     50.9595E-03
             966             440     14.0646E-03     13.8241E-03
             966             441     13.1486E-03     12.8414E-03
             966            1809     13.4311E-03     14.6411E-03
             966            1827     14.4498E-03     15.9107E-03
             967            1809     13.4311E-03     14.6411E-03
             967            1810     14.8015E-03     16.1960E-03
             967            1827     14.4498E-03     15.9107E-03
             967            1828     15.7024E-03     17.3339E-03
             968            1810     14.8015E-03     16.1960E-03
             968            1811     16.4615E-03     17.9191E-03
             968            1828     15.7024E-03     17.3339E-03
             968            1829     16.9169E-03     18.6351E-03
             969            1811     16.4615E-03     17.9191E-03
             969            1812     18.2200E-03     19.6340E-03
             969            1829     16.9169E-03     18.6351E-03
             969            1830     18.2176E-03     19.9959E-03
             970            1812     18.2200E-03     19.6340E-03
             970            1813     20.0168E-03     21.4004E-03
             970            1830     18.2176E-03     19.9959E-03
             970            1831     19.8502E-03     21.6314E-03
             971            1813     20.0168E-03     21.4004E-03
             971            1814     21.9219E-03     23.2649E-03
             971            1831     19.8502E-03     21.6314E-03
             971            1832     21.6126E-03     23.3991E-03
             972            1814     21.9219E-03     23.2649E-03
             972            1815     23.8608E-03     25.1811E-03
             972            1832     21.6126E-03     23.3991E-03
             972            1833     23.4707E-03     25.2587E-03
             973            1815     23.8608E-03     25.1811E-03
             973            1816     25.8334E-03     27.1482E-03
             973            1833     23.4707E-03     25.2587E-03
             973            1834     25.3811E-03     27.1733E-03
             974            1816     25.8334E-03     27.1482E-03
             974            1817     27.8253E-03     29.1440E-03
             974            1834     25.3811E-03     27.1733E-03
             974            1835     27.3181E-03     29.1191E-03
             975            1817     27.8253E-03     29.1440E-03
             975            1818     29.8345E-03     31.1668E-03
             975            1835     27.3181E-03     29.1191E-03
             975            1836     29.2729E-03     31.0856E-03
             976            1818     29.8345E-03     31.1668E-03
             976            1819     31.8611E-03     33.2159E-03
             976            1836     29.2729E-03     31.0856E-03
             976            1837     31.2434E-03     33.0699E-03
             977            1819     31.8611E-03     33.2159E-03
             977            1820     33.9128E-03     35.2981E-03
             977            1837     31.2434E-03     33.0699E-03
             977            1838     33.2371E-03     35.0850E-03
             978            1820     33.9128E-03     35.2981E-03
             978            1821     36.0073E-03     37.4359E-03
             978            1838     33.2371E-03     35.0850E-03
             978            1839     35.2831E-03     37.1523E-03
             979            1821     36.0073E-03     37.4359E-03
             979            1822     38.1709E-03     39.6508E-03
             979            1839     35.2831E-03     37.1523E-03
             979            1840     37.4266E-03     39.3283E-03
             980            1822     38.1709E-03     39.6508E-03
             980            1823     40.4808E-03     42.0078E-03
             980            1840     37.4266E-03     39.3283E-03
             980            1841     39.7600E-03     41.6829E-03
             981            1823     40.4808E-03     42.0078E-03
             981            1824     42.9913E-03     44.5608E-03
             981            1841     39.7600E-03     41.6829E-03
             981            1842     42.4725E-03     44.3905E-03
             982            1824     42.9913E-03     44.5608E-03
             982            1825     46.0279E-03     47.4919E-03
             982            1842     42.4725E-03     44.3905E-03
             982            1843     45.7598E-03     47.6293E-03
             983            1825     46.0279E-03     47.4919E-03
             983            1826     49.6378E-03     50.9595E-03
             983            1843     45.7598E-03     47.6293E-03
             983            1844     50.4144E-03     51.9211E-03
             984             356     53.8895E-03     55.0688E-03
             984             357     56.3859E-03     57.4975E-03
             984            1826     49.6378E-03     50.9595E-03
             984            1844     50.4144E-03     51.9211E-03
             985             439     15.8061E-03     15.6624E-03
             985             440     14.0646E-03     13.8241E-03
             985            1827     14.4498E-03     15.9107E-03
             985            1845     16.2796E-03     17.8960E-03
             986            1827     14.4498E-03     15.9107E-03
             986            1828     15.7024E-03     17.3339E-03
             986            1845     16.2796E-03     17.8960E-03
             986            1846     16.7385E-03     18.6030E-03
             987            1828     15.7024E-03     17.3339E-03
             987            1829     16.9169E-03     18.6351E-03
             987            1846     16.7385E-03     18.6030E-03
             987            1847     17.0757E-03     19.1219E-03
             988            1829     16.9169E-03     18.6351E-03
             988            1830     18.2176E-03     19.9959E-03
             988            1847     17.0757E-03     19.1219E-03
             988            1848     18.1812E-03     20.3166E-03
             989            1830     18.2176E-03     19.9959E-03
             989            1831     19.8502E-03     21.6314E-03
             989            1848     18.1812E-03     20.3166E-03
             989            1849     19.6431E-03     21.8358E-03
             990            1831     19.8502E-03     21.6314E-03
             990            1832     21.6126E-03     23.3991E-03
             990            1849     19.6431E-03     21.8358E-03
             990            1850     21.2981E-03     23.5262E-03
             991            1832     21.6126E-03     23.3991E-03
             991            1833     23.4707E-03     25.2587E-03
             991            1850     21.2981E-03     23.5262E-03
             991            1851     23.0801E-03     25.3338E-03
             992            1833     23.4707E-03     25.2587E-03
             992            1834     25.3811E-03     27.1733E-03
             992            1851     23.0801E-03     25.3338E-03
             992            1852     24.9194E-03     27.1907E-03
             993            1834     25.3811E-03     27.1733E-03
             993            1835     27.3181E-03     29.1191E-03
             993            1852     24.9194E-03     27.1907E-03
             993            1853     26.7970E-03     29.0802E-03
             994            1835     27.3181E-03     29.1191E-03
             994            1836     29.2729E-03     31.0856E-03
             994            1853     26.7970E-03     29.0802E-03
             994            1854     28.6903E-03     30.9809E-03
             995            1836     29.2729E-03     31.0856E-03
             995            1837     31.2434E-03     33.0699E-03
             995            1854     28.6903E-03     30.9809E-03
             995            1855     30.5987E-03     32.8944E-03
             996            1837     31.2434E-03     33.0699E-03
             996            1838     33.2371E-03     35.0850E-03
             996            1855     30.5987E-03     32.8944E-03
             996            1856     32.5351E-03     34.8294E-03
             997            1838     33.2371E-03     35.0850E-03
             997            1839     35.2831E-03     37.1523E-03
             997            1856     32.5351E-03     34.8294E-03
             997            1857     34.5206E-03     36.8166E-03
             998            1839     35.2831E-03     37.1523E-03
             998            1840     37.4266E-03     39.3283E-03
             998            1857     34.5206E-03     36.8166E-03
             998            1858     36.6251E-03     38.9119E-03
             999            1840     37.4266E-03     39.3283E-03
             999            1841     39.7600E-03     41.6829E-03
             999            1858     36.6251E-03     38.9119E-03
             999            1859     38.9322E-03     41.2196E-03
            1000            1841     39.7600E-03     41.6829E-03
            1000            1842     42.4725E-03     44.3905E-03
            1000            1859     38.9322E-03     41.2196E-03
            1000            1860     41.6447E-03     43.9093E-03
            1001            1842     42.4725E-03     44.3905E-03
            1001            1843     45.7598E-03     47.6293E-03
            1001            1860     41.6447E-03     43.9093E-03
            1001            1861     45.0596E-03     47.2946E-03
            1002            1843     45.7598E-03     47.6293E-03
            1002            1844     50.4144E-03     51.9211E-03
            1002            1861     45.0596E-03     47.2946E-03
            1002            1862     49.6671E-03     51.8131E-03
            1003             357     56.3859E-03     57.4975E-03
            1003             358     57.2737E-03     58.7369E-03
            1003            1844     50.4144E-03     51.9211E-03
            1003            1862     49.6671E-03     51.8131E-03
            1004             438     19.2969E-03     19.3436E-03
            1004             439     15.8061E-03     15.6624E-03
            1004            1845     16.2796E-03     17.8960E-03
            1004            1863     18.3582E-03     20.3192E-03
            1005            1845     16.2796E-03     17.8960E-03
            1005            1846     16.7385E-03     18.6030E-03
            1005            1863     18.3582E-03     20.3192E-03
            1005            1864     16.9868E-03     19.2041E-03
            1006            1846     16.7385E-03     18.6030E-03
            1006            1847     17.0757E-03     19.1219E-03
            1006            1864     16.9868E-03     19.2041E-03
            1006            1865     17.0633E-03     19.4700E-03
            1007            1847     17.0757E-03     19.1219E-03
            1007            1848     18.1812E-03     20.3166E-03
            1007            1865     17.0633E-03     19.4700E-03
            1007            1866     18.1045E-03     20.6258E-03
            1008            1848     18.1812E-03     20.3166E-03
            1008            1849     19.6431E-03     21.8358E-03
            1008            1866     18.1045E-03     20.6258E-03
            1008            1867     19.4423E-03     22.0574E-03
            1009            1849     19.6431E-03     21.8358E-03
            1009            1850     21.2981E-03     23.5262E-03
            1009            1867     19.4423E-03     22.0574E-03
            1009            1868     21.0336E-03     23.7147E-03
            1010            1850     21.2981E-03     23.5262E-03
            1010            1851     23.0801E-03     25.3338E-03
            1010            1868     21.0336E-03     23.7147E-03
            1010            1869     22.7291E-03     25.4546E-03
            1011            1851     23.0801E-03     25.3338E-03
            1011            1852     24.9194E-03     27.1907E-03
            1011            1869     22.7291E-03     25.4546E-03
            1011            1870     24.5047E-03     27.2593E-03
            1012            1852     24.9194E-03     27.1907E-03
            1012            1853     26.7970E-03     29.0802E-03
            1012            1870     24.5047E-03     27.2593E-03
            1012            1871     26.3121E-03     29.0819E-03
            1013            1853     26.7970E-03     29.0802E-03
            1013            1854     28.6903E-03     30.9809E-03
            1013            1871     26.3121E-03     29.0819E-03
            1013            1872     28.1448E-03     30.9193E-03
            1014            1854     28.6903E-03     30.9809E-03
            1014            1855     30.5987E-03     32.8944E-03
            1014            1872     28.1448E-03     30.9193E-03
            1014            1873     29.9973E-03     32.7642E-03
            1015            1855     30.5987E-03     32.8944E-03
            1015            1856     32.5351E-03     34.8294E-03
            1015            1873     29.9973E-03     32.7642E-03
            1015            1874     31.8799E-03     34.6290E-03
            1016            1856     32.5351E-03     34.8294E-03
            1016            1857     34.5206E-03     36.8166E-03
            1016            1874     31.8799E-03     34.6290E-03
            1016            1875     33.8313E-03     36.5454E-03
            1017            1857     34.5206E-03     36.8166E-03
            1017            1858     36.6251E-03     38.9119E-03
            1017            1875     33.8313E-03     36.5454E-03
            1017            1876     35.8924E-03     38.5631E-03
            1018            1858     36.6251E-03     38.9119E-03
            1018            1859     38.9322E-03     41.2196E-03
            1018            1876     35.8924E-03     38.5631E-03
            1018            1877     38.1900E-03     40.7985E-03
            1019            1859     38.9322E-03     41.2196E-03
            1019            1860     41.6447E-03     43.9093E-03
            1019            1877     38.1900E-03     40.7985E-03
            1019            1878     40.8337E-03     43.3969E-03
            1020            1860     41.6447E-03     43.9093E-03
            1020            1861     45.0596E-03     47.2946E-03
            1020            1878     40.8337E-03     43.3969E-03
            1020            1879     44.1873E-03     46.7203E-03
            1021            1861     45.0596E-03     47.2946E-03
            1021            1862     49.6671E-03     51.8131E-03
            1021            1879     44.1873E-03     46.7203E-03
            1021            1880     48.5546E-03     51.1629E-03
            1022             358     57.2737E-03     58.7369E-03
            1022             359     55.3504E-03     58.2214E-03
            1022            1862     49.6671E-03     51.8131E-03
            1022            1880     48.5546E-03     51.1629E-03
            1023             437     20.6129E-03     23.0764E-03
            1023             438     19.2969E-03     19.3436E-03
            1023            1863     18.3582E-03     20.3192E-03
            1023            1881     22.1393E-03     22.9627E-03
            1024            1863     18.3582E-03     20.3192E-03
            1024            1864     16.9868E-03     19.2041E-03
            1024            1881     22.1393E-03     22.9627E-03
            1024            1882     22.0824E-03     22.7081E-03
            1025            1864     16.9868E-03     19.2041E-03
            1025            1865     17.0633E-03     19.4700E-03
            1025            1882     22.0824E-03     22.7081E-03
            1025            1883     23.4267E-03     24.2491E-03
            1026            1865     17.0633E-03     19.4700E-03
            1026            1866     18.1045E-03     20.6258E-03
            1026            1883     23.4267E-03     24.2491E-03
            1026            1884     25.3054E-03     26.3533E-03
            1027            1866     18.1045E-03     20.6258E-03
            1027            1867     19.4423E-03     22.0574E-03
            1027            1884     25.3054E-03     26.3533E-03
            1027            1885     27.4563E-03     28.6520E-03
            1028            1867     19.4423E-03     22.0574E-03
            1028            1868     21.0336E-03     23.7147E-03
            1028            1885     27.4563E-03     28.6520E-03
            1028            1886     29.7789E-03     31.0646E-03
            1029            1868     21.0336E-03     23.7147E-03
            1029            1869     22.7291E-03     25.4546E-03
            1029            1886     29.7789E-03     31.0646E-03
            1029            1887     32.1716E-03     33.5054E-03
            1030            1869     22.7291E-03     25.4546E-03
            1030            1870     24.5047E-03     27.2593E-03
            1030            1887     32.1716E-03     33.5054E-03
            1030            1888     34.6124E-03     35.9593E-03
            1031            1870     24.5047E-03     27.2593E-03
            1031            1871     26.3121E-03     29.0819E-03
            1031            1888     34.6124E-03     35.9593E-03
            1031            1889     37.0546E-03     38.3950E-03
            1032            1871     26.3121E-03     29.0819E-03
            1032            1872     28.1448E-03     30.9193E-03
            1032            1889     37.0546E-03     38.3950E-03
            1032            1890     39.4972E-03     40.8063E-03
            1033            1872     28.1448E-03     30.9193E-03
            1033            1873     29.9973E-03     32.7642E-03
            1033            1890     39.4972E-03     40.8063E-03
            1033            1891     41.9152E-03     43.1809E-03
            1034            1873     29.9973E-03     32.7642E-03
            1034            1874     31.8799E-03     34.6290E-03
            1034            1891     41.9152E-03     43.1809E-03
            1034            1892     44.3211E-03     45.5094E-03
            1035            1874     31.8799E-03     34.6290E-03
            1035            1875     33.8313E-03     36.5454E-03
            1035            1892     44.3211E-03     45.5094E-03
            1035            1893     46.6973E-03     47.7978E-03
            1036            1875     33.8313E-03     36.5454E-03
            1036            1876     35.8924E-03     38.5631E-03
            1036            1893     46.6973E-03     47.7978E-03
            1036            1894     49.0825E-03     50.0367E-03
            1037            1876     35.8924E-03     38.5631E-03
            1037            1877     38.1900E-03     40.7985E-03
            1037            1894     49.0825E-03     50.0367E-03
            1037            1895     51.4581E-03     52.2688E-03
            1038            1877     38.1900E-03     40.7985E-03
            1038            1878     40.8337E-03     43.3969E-03
            1038            1895     51.4581E-03     52.2688E-03
            1038            1896     53.9355E-03     54.5178E-03
            1039            1878     40.8337E-03     43.3969E-03
            1039            1879     44.1873E-03     46.7203E-03
            1039            1896     53.9355E-03     54.5178E-03
            1039            1897     56.4733E-03     56.9007E-03
            1040            1879     44.1873E-03     46.7203E-03
            1040            1880     48.5546E-03     51.1629E-03
            1040            1897     56.4733E-03     56.9007E-03
            1040            1898     59.4181E-03     59.6445E-03
            1041             359     55.3504E-03     58.2214E-03
            1041             360     62.6443E-03     63.0142E-03
            1041            1880     48.5546E-03     51.1629E-03
            1041            1898     59.4181E-03     59.6445E-03
            1042             436     20.1937E-03     23.6371E-03
            1042             437     20.6129E-03     23.0764E-03
            1042            1881     22.1393E-03     22.9627E-03
            1042            1899     23.1618E-03     24.7467E-03
            1043            1881     22.1393E-03     22.9627E-03
            1043            1882     22.0824E-03     22.7081E-03
            1043            1899     23.1618E-03     24.7467E-03
            1043            1900     26.3675E-03     26.2694E-03
            1044            1882     22.0824E-03     22.7081E-03
            1044            1883     23.4267E-03     24.2491E-03
            1044            1900     26.3675E-03     26.2694E-03
            1044            1901     29.3246E-03     28.9104E-03
            1045            1883     23.4267E-03     24.2491E-03
            1045            1884     25.3054E-03     26.3533E-03
            1045            1901     29.3246E-03     28.9104E-03
            1045            1902     32.4282E-03     32.0789E-03
            1046            1884     25.3054E-03     26.3533E-03
            1046            1885     27.4563E-03     28.6520E-03
            1046            1902     32.4282E-03     32.0789E-03
            1046            1903     35.5769E-03     35.3237E-03
            1047            1885     27.4563E-03     28.6520E-03
            1047            1886     29.7789E-03     31.0646E-03
            1047            1903     35.5769E-03     35.3237E-03
            1047            1904     38.7863E-03     38.5980E-03
            1048            1886     29.7789E-03     31.0646E-03
            1048            1887     32.1716E-03     33.5054E-03
            1048            1904     38.7863E-03     38.5980E-03
            1048            1905     42.0054E-03     41.8481E-03
            1049            1887     32.1716E-03     33.5054E-03
            1049            1888     34.6124E-03     35.9593E-03
            1049            1905     42.0054E-03     41.8481E-03
            1049            1906     45.2261E-03     45.0687E-03
            1050            1888     34.6124E-03     35.9593E-03
            1050            1889     37.0546E-03     38.3950E-03
            1050            1906     45.2261E-03     45.0687E-03
            1050            1907     48.4295E-03     48.2473E-03
            1051            1889     37.0546E-03     38.3950E-03
            1051            1890     39.4972E-03     40.8063E-03
            1051            1907     48.4295E-03     48.2473E-03
            1051            1908     51.6058E-03     51.3809E-03
            1052            1890     39.4972E-03     40.8063E-03
            1052            1891     41.9152E-03     43.1809E-03
            1052            1908     51.6058E-03     51.3809E-03
            1052            1909     54.7402E-03     54.4493E-03
            1053            1891     41.9152E-03     43.1809E-03
            1053            1892     44.3211E-03     45.5094E-03
            1053            1909     54.7402E-03     54.4493E-03
            1053            1910     57.8142E-03     57.4419E-03
            1054            1892     44.3211E-03     45.5094E-03
            1054            1893     46.6973E-03     47.7978E-03
            1054            1910     57.8142E-03     57.4419E-03
            1054            1911     60.8000E-03     60.3175E-03
            1055            1893     46.6973E-03     47.7978E-03
            1055            1894     49.0825E-03     50.0367E-03
            1055            1911     60.8000E-03     60.3175E-03
            1055            1912     63.6621E-03     63.0483E-03
            1056            1894     49.0825E-03     50.0367E-03
            1056            1895     51.4581E-03     52.2688E-03
            1056            1912     63.6621E-03     63.0483E-03
            1056            1913     66.3355E-03     65.5632E-03
            1057            1895     51.4581E-03     52.2688E-03
            1057            1896     53.9355E-03     54.5178E-03
            1057            1913     66.3355E-03     65.5632E-03
            1057            1914     68.7571E-03     67.8002E-03
            1058            1896     53.9355E-03     54.5178E-03
            1058            1897     56.4733E-03     56.9007E-03
            1058            1914     68.7571E-03     67.8002E-03
            1058            1915     70.7781E-03     69.6435E-03
            1059            1897     56.4733E-03     56.9007E-03
            1059            1898     59.4181E-03     59.6445E-03
            1059            1915     70.7781E-03     69.6435E-03
            1059            1916     72.2636E-03     70.9628E-03
            1060             360     62.6443E-03     63.0142E-03
            1060             361     72.7642E-03     71.4246E-03
            1060            1898     59.4181E-03     59.6445E-03
            1060            1916     72.2636E-03     70.9628E-03
            1061             435     20.0315E-03     20.7735E-03
            1061             436     20.1937E-03     23.6371E-03
            1061            1899     23.1618E-03     24.7467E-03
            1061            1917     21.0302E-03     23.6877E-03
            1062            1899     23.1618E-03     24.7467E-03
            1062            1900     26.3675E-03     26.2694E-03
            1062            1917     21.0302E-03     23.6877E-03
            1062            1918     24.6979E-03     26.3816E-03
            1063            1900     26.3675E-03     26.2694E-03
            1063            1901     29.3246E-03     28.9104E-03
            1063            1918     24.6979E-03     26.3816E-03
            1063            1919     28.5457E-03     29.1633E-03
            1064            1901     29.3246E-03     28.9104E-03
            1064            1902     32.4282E-03     32.0789E-03
            1064            1919     28.5457E-03     29.1633E-03
            1064            1920     32.1521E-03     32.4351E-03
            1065            1902     32.4282E-03     32.0789E-03
            1065            1903     35.5769E-03     35.3237E-03
            1065            1920     32.1521E-03     32.4351E-03
            1065            1921     35.6305E-03     35.8209E-03
            1066            1903     35.5769E-03     35.3237E-03
            1066            1904     38.7863E-03     38.5980E-03
            1066            1921     35.6305E-03     35.8209E-03
            1066            1922     39.0542E-03     39.2203E-03
            1067            1904     38.7863E-03     38.5980E-03
            1067            1905     42.0054E-03     41.8481E-03
            1067            1922     39.0542E-03     39.2203E-03
            1067            1923     42.4418E-03     42.6085E-03
            1068            1905     42.0054E-03     41.8481E-03
            1068            1906     45.2261E-03     45.0687E-03
            1068            1923     42.4418E-03     42.6085E-03
            1068            1924     45.8134E-03     45.9758E-03
            1069            1906     45.2261E-03     45.0687E-03
            1069            1907     48.4295E-03     48.2473E-03
            1069            1924     45.8134E-03     45.9758E-03
            1069            1925     49.1740E-03     49.3292E-03
            1070            1907     48.4295E-03     48.2473E-03
            1070            1908     51.6058E-03     51.3809E-03
            1070            1925     49.1740E-03     49.3292E-03
            1070            1926     52.5270E-03     52.6625E-03
            1071            1908     51.6058E-03     51.3809E-03
            1071            1909     54.7402E-03     54.4493E-03
            1071            1926     52.5270E-03     52.6625E-03
            1071            1927     55.8645E-03     55.9794E-03
            1072            1909     54.7402E-03     54.4493E-03
            1072            1910     57.8142E-03     57.4419E-03
            1072            1927     55.8645E-03     55.9794E-03
            1072            1928     59.1768E-03     59.2579E-03
            1073            1910     57.8142E-03     57.4419E-03
            1073            1911     60.8000E-03     60.3175E-03
            1073            1928     59.1768E-03     59.2579E-03
            1073            1929     62.4325E-03     62.4886E-03
            1074            1911     60.8000E-03     60.3175E-03
            1074            1912     63.6621E-03     63.0483E-03
            1074            1929     62.4325E-03     62.4886E-03
            1074            1930     65.5927E-03     65.6169E-03
            1075            1912     63.6621E-03     63.0483E-03
            1075            1913     66.3355E-03     65.5632E-03
            1075            1930     65.5927E-03     65.6169E-03
            1075            1931     68.5840E-03     68.6044E-03
            1076            1913     66.3355E-03     65.5632E-03
            1076            1914     68.7571E-03     67.8002E-03
            1076            1931     68.5840E-03     68.6044E-03
            1076            1932     71.2948E-03     71.3377E-03
            1077            1914     68.7571E-03     67.8002E-03
            1077            1915     70.7781E-03     69.6435E-03
            1077            1932     71.2948E-03     71.3377E-03
            1077            1933     73.5777E-03     73.7133E-03
            1078            1915     70.7781E-03     69.6435E-03
            1078            1916     72.2636E-03     70.9628E-03
            1078            1933     73.5777E-03     73.7133E-03
            1078            1934     75.1961E-03     75.5247E-03
            1079             361     72.7642E-03     71.4246E-03
            1079             362     75.9178E-03     76.4622E-03
            1079            1916     72.2636E-03     70.9628E-03
            1079            1934     75.1961E-03     75.5247E-03
            1080             434     18.9648E-03     18.8821E-03
            1080             435     20.0315E-03     20.7735E-03
            1080            1917     21.0302E-03     23.6877E-03
            1080            1935     20.4652E-03     22.3359E-03
            1081            1917     21.0302E-03     23.6877E-03
            1081            1918     24.6979E-03     26.3816E-03
            1081            1935     20.4652E-03     22.3359E-03
            1081            1936     24.0048E-03     26.1090E-03
            1082            1918     24.6979E-03     26.3816E-03
            1082            1919     28.5457E-03     29.1633E-03
            1082            1936     24.0048E-03     26.1090E-03
            1082            1937     28.0540E-03     29.5375E-03
            1083            1919     28.5457E-03     29.1633E-03
            1083            1920     32.1521E-03     32.4351E-03
            1083            1937     28.0540E-03     29.5375E-03
            1083            1938     31.9689E-03     32.9035E-03
            1084            1920     32.1521E-03     32.4351E-03
            1084            1921     35.6305E-03     35.8209E-03
            1084            1938     31.9689E-03     32.9035E-03
            1084            1939     35.6809E-03     36.3899E-03
            1085            1921     35.6305E-03     35.8209E-03
            1085            1922     39.0542E-03     39.2203E-03
            1085            1939     35.6809E-03     36.3899E-03
            1085            1940     39.2609E-03     39.8582E-03
            1086            1922     39.0542E-03     39.2203E-03
            1086            1923     42.4418E-03     42.6085E-03
            1086            1940     39.2609E-03     39.8582E-03
            1086            1941     42.7767E-03     43.3279E-03
            1087            1923     42.4418E-03     42.6085E-03
            1087            1924     45.8134E-03     45.9758E-03
            1087            1941     42.7767E-03     43.3279E-03
            1087            1942     46.2599E-03     46.7945E-03
            1088            1924     45.8134E-03     45.9758E-03
            1088            1925     49.1740E-03     49.3292E-03
            1088            1942     46.2599E-03     46.7945E-03
            1088            1943     49.7363E-03     50.2644E-03
            1089            1925     49.1740E-03     49.3292E-03
            1089            1926     52.5270E-03     52.6625E-03
            1089            1943     49.7363E-03     50.2644E-03
            1089            1944     53.2145E-03     53.7480E-03
            1090            1926     52.5270E-03     52.6625E-03
            1090            1927     55.8645E-03     55.9794E-03
            1090            1944     53.2145E-03     53.7480E-03
            1090            1945     56.7005E-03     57.2394E-03
            1091            1927     55.8645E-03     55.9794E-03
            1091            1928     59.1768E-03     59.2579E-03
            1091            1945     56.7005E-03     57.2394E-03
            1091            1946     60.1786E-03     60.7412E-03
            1092            1928     59.1768E-03     59.2579E-03
            1092            1929     62.4325E-03     62.4886E-03
            1092            1946     60.1786E-03     60.7412E-03
            1092            1947     63.6381E-03     64.2263E-03
            1093            1929     62.4325E-03     62.4886E-03
            1093            1930     65.5927E-03     65.6169E-03
            1093            1947     63.6381E-03     64.2263E-03
            1093            1948     67.0238E-03     67.6759E-03
            1094            1930     65.5927E-03     65.6169E-03
            1094            1931     68.5840E-03     68.6044E-03
            1094            1948     67.0238E-03     67.6759E-03
            1094            1949     70.2757E-03     71.0113E-03
            1095            1931     68.5840E-03     68.6044E-03
            1095            1932     71.2948E-03     71.3377E-03
            1095            1949     70.2757E-03     71.0113E-03
            1095            1950     73.2778E-03     74.1538E-03
            1096            1932     71.2948E-03     71.3377E-03
            1096            1933     73.5777E-03     73.7133E-03
            1096            1950     73.2778E-03     74.1538E-03
            1096            1951     75.8646E-03     76.9449E-03
            1097            1933     73.5777E-03     73.7133E-03
            1097            1934     75.1961E-03     75.5247E-03
            1097            1951     75.8646E-03     76.9449E-03
            1097            1952     77.9063E-03     79.1635E-03
            1098             362     75.9178E-03     76.4622E-03
            1098             363     79.5301E-03     80.8545E-03
            1098            1934     75.1961E-03     75.5247E-03
            1098            1952     77.9063E-03     79.1635E-03
            1099             433     18.4782E-03     18.6151E-03
            1099             434     18.9648E-03     18.8821E-03
            1099            1935     20.4652E-03     22.3359E-03
            1099            1953     20.2353E-03     22.4518E-03
            1100            1935     20.4652E-03     22.3359E-03
            1100            1936     24.0048E-03     26.1090E-03
            1100            1953     20.2353E-03     22.4518E-03
            1100            1954     24.0057E-03     26.0248E-03
            1101            1936     24.0048E-03     26.1090E-03
            1101            1937     28.0540E-03     29.5375E-03
            1101            1954     24.0057E-03     26.0248E-03
            1101            1955     27.9829E-03     29.8440E-03
            1102            1937     28.0540E-03     29.5375E-03
            1102            1938     31.9689E-03     32.9035E-03
            1102            1955     27.9829E-03     29.8440E-03
            1102            1956     31.9424E-03     33.4251E-03
            1103            1938     31.9689E-03     32.9035E-03
            1103            1939     35.6809E-03     36.3899E-03
            1103            1956     31.9424E-03     33.4251E-03
            1103            1957     35.7311E-03     36.9163E-03
            1104            1939     35.6809E-03     36.3899E-03
            1104            1940     39.2609E-03     39.8582E-03
            1104            1957     35.7311E-03     36.9163E-03
            1104            1958     39.3779E-03     40.4167E-03
            1105            1940     39.2609E-03     39.8582E-03
            1105            1941     42.7767E-03     43.3279E-03
            1105            1958     39.3779E-03     40.4167E-03
            1105            1959     42.9501E-03     43.9061E-03
            1106            1941     42.7767E-03     43.3279E-03
            1106            1942     46.2599E-03     46.7945E-03
            1106            1959     42.9501E-03     43.9061E-03
            1106            1960     46.4887E-03     47.4125E-03
            1107            1942     46.2599E-03     46.7945E-03
            1107            1943     49.7363E-03     50.2644E-03
            1107            1960     46.4887E-03     47.4125E-03
            1107            1961     50.0258E-03     50.9460E-03
            1108            1943     49.7363E-03     50.2644E-03
            1108            1944     53.2145E-03     53.7480E-03
            1108            1961     50.0258E-03     50.9460E-03
            1108            1962     53.5757E-03     54.5093E-03
            1109            1944     53.2145E-03     53.7480E-03
            1109            1945     56.7005E-03     57.2394E-03
            1109            1962     53.5757E-03     54.5093E-03
            1109            1963     57.1419E-03     58.1111E-03
            1110            1945     56.7005E-03     57.2394E-03
            1110            1946     60.1786E-03     60.7412E-03
            1110            1963     57.1419E-03     58.1111E-03
            1110            1964     60.7303E-03     61.7459E-03
            1111            1946     60.1786E-03     60.7412E-03
            1111            1947     63.6381E-03     64.2263E-03
            1111            1964     60.7303E-03     61.7459E-03
            1111            1965     64.3151E-03     65.4108E-03
            1112            1947     63.6381E-03     64.2263E-03
            1112            1948     67.0238E-03     67.6759E-03
            1112            1965     64.3151E-03     65.4108E-03
            1112            1966     67.8880E-03     69.0757E-03
            1113            1948     67.0238E-03     67.6759E-03
            1113            1949     70.2757E-03     71.0113E-03
            1113            1966     67.8880E-03     69.0757E-03
            1113            1967     71.3728E-03     72.7022E-03
            1114            1949     70.2757E-03     71.0113E-03
            1114            1950     73.2778E-03     74.1538E-03
            1114            1967     71.3728E-03     72.7022E-03
            1114            1968     74.6969E-03     76.1857E-03
            1115            1950     73.2778E-03     74.1538E-03
            1115            1951     75.8646E-03     76.9449E-03
            1115            1968     74.6969E-03     76.1857E-03
            1115            1969     77.7542E-03     79.3877E-03
            1116            1951     75.8646E-03     76.9449E-03
            1116            1952     77.9063E-03     79.1635E-03
            1116            1969     77.7542E-03     79.3877E-03
            1116            1970     80.4483E-03     82.1870E-03
            1117             363     79.5301E-03     80.8545E-03
            1117             364     83.1152E-03     84.6036E-03
            1117            1952     77.9063E-03     79.1635E-03
            1117            1970     80.4483E-03     82.1870E-03
            1118             432     18.5474E-03     18.2850E-03
            1118             433     18.4782E-03     18.6151E-03
            1118            1953     20.2353E-03     22.4518E-03
            1118            1971     20.6076E-03     22.8187E-03
            1119            1953     20.2353E-03     22.4518E-03
            1119            1954     24.0057E-03     26.0248E-03
            1119            1971     20.6076E-03     22.8187E-03
            1119            1972     24.2989E-03     26.5676E-03
            1120            1954     24.0057E-03     26.0248E-03
            1120            1955     27.9829E-03     29.8440E-03
            1120            1972     24.2989E-03     26.5676E-03
            1120            1973     28.2465E-03     30.2831E-03
            1121            1955     27.9829E-03     29.8440E-03
            1121            1956     31.9424E-03     33.4251E-03
            1121            1973     28.2465E-03     30.2831E-03
            1121            1974     32.0752E-03     33.9002E-03
            1122            1956     31.9424E-03     33.4251E-03
            1122            1957     35.7311E-03     36.9163E-03
            1122            1974     32.0752E-03     33.9002E-03
            1122            1975     35.7832E-03     37.3804E-03
            1123            1957     35.7311E-03     36.9163E-03
            1123            1958     39.3779E-03     40.4167E-03
            1123            1975     35.7832E-03     37.3804E-03
            1123            1976     39.3924E-03     40.8242E-03
            1124            1958     39.3779E-03     40.4167E-03
            1124            1959     42.9501E-03     43.9061E-03
            1124            1976     39.3924E-03     40.8242E-03
            1124            1977     42.9361E-03     44.2832E-03
            1125            1959     42.9501E-03     43.9061E-03
            1125            1960     46.4887E-03     47.4125E-03
            1125            1977     42.9361E-03     44.2832E-03
            1125            1978     46.4729E-03     47.7801E-03
            1126            1960     46.4887E-03     47.4125E-03
            1126            1961     50.0258E-03     50.9460E-03
            1126            1978     46.4729E-03     47.7801E-03
            1126            1979     50.0129E-03     51.3168E-03
            1127            1961     50.0258E-03     50.9460E-03
            1127            1962     53.5757E-03     54.5093E-03
            1127            1979     50.0129E-03     51.3168E-03
            1127            1980     53.5759E-03     54.9027E-03
            1128            1962     53.5757E-03     54.5093E-03
            1128            1963     57.1419E-03     58.1111E-03
            1128            1980     53.5759E-03     54.9027E-03
            1128            1981     57.1703E-03     58.5403E-03
            1129            1963     57.1419E-03     58.1111E-03
            1129            1964     60.7303E-03     61.7459E-03
            1129            1981     57.1703E-03     58.5403E-03
            1129            1982     60.7949E-03     62.2348E-03
            1130            1964     60.7303E-03     61.7459E-03
            1130            1965     64.3151E-03     65.4108E-03
            1130            1982     60.7949E-03     62.2348E-03
            1130            1983     64.4646E-03     65.9904E-03
            1131            1965     64.3151E-03     65.4108E-03
            1131            1966     67.8880E-03     69.0757E-03
            1131            1983     64.4646E-03     65.9904E-03
            1131            1984     68.1522E-03     69.7996E-03
            1132            1966     67.8880E-03     69.0757E-03
            1132            1967     71.3728E-03     72.7022E-03
            1132            1984     68.1522E-03     69.7996E-03
            1132            1985     71.8791E-03     73.6443E-03
            1133            1967     71.3728E-03     72.7022E-03
            1133            1968     74.6969E-03     76.1857E-03
            1133            1985     71.8791E-03     73.6443E-03
            1133            1986     75.5716E-03     77.4735E-03
            1134            1968     74.6969E-03     76.1857E-03
            1134            1969     77.7542E-03     79.3877E-03
            1134            1986     75.5716E-03     77.4735E-03
            1134            1987     79.1902E-03     81.1766E-03
            1135            1969     77.7542E-03     79.3877E-03
            1135            1970     80.4483E-03     82.1870E-03
            1135            1987     79.1902E-03     81.1766E-03
            1135            1988     82.7664E-03     84.6496E-03
            1136             364     83.1152E-03     84.6036E-03
            1136             365     86.2635E-03     87.9109E-03
            1136            1970     80.4483E-03     82.1870E-03
            1136            1988     82.7664E-03     84.6496E-03
            1137             431     18.8713E-03     18.7854E-03
            1137             432     18.5474E-03     18.2850E-03
            1137            1971     20.6076E-03     22.8187E-03
            1137            1989     21.2424E-03     23.6574E-03
            1138            1971     20.6076E-03     22.8187E-03
            1138            1972     24.2989E-03     26.5676E-03
            1138            1989     21.2424E-03     23.6574E-03
            1138            1990     24.9979E-03     27.3791E-03
            1139            1972     24.2989E-03     26.5676E-03
            1139            1973     28.2465E-03     30.2831E-03
            1139            1990     24.9979E-03     27.3791E-03
            1139            1991     28.7048E-03     30.9625E-03
            1140            1973     28.2465E-03     30.2831E-03
            1140            1974     32.0752E-03     33.9002E-03
            1140            1991     28.7048E-03     30.9625E-03
            1140            1992     32.3234E-03     34.3912E-03
            1141            1974     32.0752E-03     33.9002E-03
            1141            1975     35.7832E-03     37.3804E-03
            1141            1992     32.3234E-03     34.3912E-03
            1141            1993     35.8343E-03     37.7393E-03
            1142            1975     35.7832E-03     37.3804E-03
            1142            1976     39.3924E-03     40.8242E-03
            1142            1993     35.8343E-03     37.7393E-03
            1142            1994     39.2851E-03     41.0613E-03
            1143            1976     39.3924E-03     40.8242E-03
            1143            1977     42.9361E-03     44.2832E-03
            1143            1994     39.2851E-03     41.0613E-03
            1143            1995     42.7510E-03     44.4518E-03
            1144            1977     42.9361E-03     44.2832E-03
            1144            1978     46.4729E-03     47.7801E-03
            1144            1995     42.7510E-03     44.4518E-03
            1144            1996     46.2193E-03     47.8901E-03
            1145            1978     46.4729E-03     47.7801E-03
            1145            1979     50.0129E-03     51.3168E-03
            1145            1996     46.2193E-03     47.8901E-03
            1145            1997     49.7174E-03     51.3876E-03
            1146            1979     50.0129E-03     51.3168E-03
            1146            1980     53.5759E-03     54.9027E-03
            1146            1997     49.7174E-03     51.3876E-03
            1146            1998     53.2436E-03     54.9395E-03
            1147            1980     53.5759E-03     54.9027E-03
            1147            1981     57.1703E-03     58.5403E-03
            1147            1998     53.2436E-03     54.9395E-03
            1147            1999     56.8077E-03     58.5500E-03
            1148            1981     57.1703E-03     58.5403E-03
            1148            1982     60.7949E-03     62.2348E-03
            1148            1999     56.8077E-03     58.5500E-03
            1148            2000     60.4233E-03     62.2333E-03
            1149            1982     60.7949E-03     62.2348E-03
            1149            1983     64.4646E-03     65.9904E-03
            1149            2000     60.4233E-03     62.2333E-03
            1149            2001     64.0976E-03     65.9968E-03
            1150            1983     64.4646E-03     65.9904E-03
            1150            1984     68.1522E-03     69.7996E-03
            1150            2001     64.0976E-03     65.9968E-03
            1150            2002     67.8756E-03     69.8736E-03
            1151            1984     68.1522E-03     69.7996E-03
            1151            1985     71.8791E-03     73.6443E-03
            1151            2002     67.8756E-03     69.8736E-03
            1151            2003     71.7541E-03     73.8677E-03
            1152            1985     71.8791E-03     73.6443E-03
            1152            1986     75.5716E-03     77.4735E-03
            1152            2003     71.7541E-03     73.8677E-03
            1152            2004     75.8505E-03     78.0135E-03
            1153            1986     75.5716E-03     77.4735E-03
            1153            1987     79.1902E-03     81.1766E-03
            1153            2004     75.8505E-03     78.0135E-03
            1153            2005     80.1183E-03     82.3017E-03
            1154            1987     79.1902E-03     81.1766E-03
            1154            1988     82.7664E-03     84.6496E-03
            1154            2005     80.1183E-03     82.3017E-03
            1154            2006     84.5369E-03     86.6125E-03
            1155             365     86.2635E-03     87.9109E-03
            1155             366     89.1636E-03     90.8574E-03
            1155            1988     82.7664E-03     84.6496E-03
            1155            2006     84.5369E-03     86.6125E-03
            1156             430     19.8462E-03     19.7199E-03
            1156             431     18.8713E-03     18.7854E-03
            1156            1989     21.2424E-03     23.6574E-03
            1156            2007     22.3653E-03     24.9447E-03
            1157            1989     21.2424E-03     23.6574E-03
            1157            1990     24.9979E-03     27.3791E-03
            1157            2007     22.3653E-03     24.9447E-03
            1157            2008     25.9767E-03     28.4896E-03
            1158            1990     24.9979E-03     27.3791E-03
            1158            1991     28.7048E-03     30.9625E-03
            1158            2008     25.9767E-03     28.4896E-03
            1158            2009     29.3960E-03     31.8217E-03
            1159            1991     28.7048E-03     30.9625E-03
            1159            1992     32.3234E-03     34.3912E-03
            1159            2009     29.3960E-03     31.8217E-03
            1159            2010     32.6354E-03     34.9089E-03
            1160            1992     32.3234E-03     34.3912E-03
            1160            1993     35.8343E-03     37.7393E-03
            1160            2010     32.6354E-03     34.9089E-03
            1160            2011     35.8154E-03     37.9566E-03
            1161            1993     35.8343E-03     37.7393E-03
            1161            1994     39.2851E-03     41.0613E-03
            1161            2011     35.8154E-03     37.9566E-03
            1161            2012     39.0901E-03     41.1600E-03
            1162            1994     39.2851E-03     41.0613E-03
            1162            1995     42.7510E-03     44.4518E-03
            1162            2012     39.0901E-03     41.1600E-03
            1162            2013     42.4066E-03     44.4327E-03
            1163            1995     42.7510E-03     44.4518E-03
            1163            1996     46.2193E-03     47.8901E-03
            1163            2013     42.4066E-03     44.4327E-03
            1163            2014     45.7810E-03     47.7922E-03
            1164            1996     46.2193E-03     47.8901E-03
            1164            1997     49.7174E-03     51.3876E-03
            1164            2014     45.7810E-03     47.7922E-03
            1164            2015     49.1919E-03     51.2111E-03
            1165            1997     49.7174E-03     51.3876E-03
            1165            1998     53.2436E-03     54.9395E-03
            1165            2015     49.1919E-03     51.2111E-03
            1165            2016     52.6429E-03     54.6844E-03
            1166            1998     53.2436E-03     54.9395E-03
            1166            1999     56.8077E-03     58.5500E-03
            1166            2016     52.6429E-03     54.6844E-03
            1166            2017     56.1351E-03     58.2180E-03
            1167            1999     56.8077E-03     58.5500E-03
            1167            2000     60.4233E-03     62.2333E-03
            1167            2017     56.1351E-03     58.2180E-03
            1167            2018     59.6839E-03     61.8187E-03
            1168            2000     60.4233E-03     62.2333E-03
            1168            2001     64.0976E-03     65.9968E-03
            1168            2018     59.6839E-03     61.8187E-03
            1168            2019     63.3195E-03     65.5260E-03
            1169            2001     64.0976E-03     65.9968E-03
            1169            2002     67.8756E-03     69.8736E-03
            1169            2019     63.3195E-03     65.5260E-03
            1169            2020     67.0827E-03     69.3664E-03
            1170            2002     67.8756E-03     69.8736E-03
            1170            2003     71.7541E-03     73.8677E-03
            1170            2020     67.0827E-03     69.3664E-03
            1170            2021     71.0820E-03     73.4343E-03
            1171            2003     71.7541E-03     73.8677E-03
            1171            2004     75.8505E-03     78.0135E-03
            1171            2021     71.0820E-03     73.4343E-03
            1171            2022     75.3774E-03     77.7861E-03
            1172            2004     75.8505E-03     78.0135E-03
            1172            2005     80.1183E-03     82.3017E-03
            1172            2022     75.3774E-03     77.7861E-03
            1172            2023     80.3025E-03     82.5922E-03
            1173            2005     80.1183E-03     82.3017E-03
            1173            2006     84.5369E-03     86.6125E-03
            1173            2023     80.3025E-03     82.5922E-03
            1173            2024     85.7513E-03     87.9054E-03
            1174             366     89.1636E-03     90.8574E-03
            1174             367     91.5020E-03     93.5088E-03
            1174            2006     84.5369E-03     86.6125E-03
            1174            2024     85.7513E-03     87.9054E-03
            1175             429     21.3143E-03     21.3114E-03
            1175             430     19.8462E-03     19.7199E-03
            1175            2007     22.3653E-03     24.9447E-03
            1175            2025     24.0248E-03     26.6826E-03
            1176            2007     22.3653E-03     24.9447E-03
            1176            2008     25.9767E-03     28.4896E-03
            1176            2025     24.0248E-03     26.6826E-03
            1176            2026     27.4179E-03     30.1325E-03
            1177            2008     25.9767E-03     28.4896E-03
            1177            2009     29.3960E-03     31.8217E-03
            1177            2026     27.4179E-03     30.1325E-03
            1177            2027     30.2477E-03     32.7627E-03
            1178            2009     29.3960E-03     31.8217E-03
            1178            2010     32.6354E-03     34.9089E-03
            1178            2027     30.2477E-03     32.7627E-03
            1178            2028     32.8614E-03     35.2533E-03
            1179            2010     32.6354E-03     34.9089E-03
            1179            2011     35.8154E-03     37.9566E-03
            1179            2028     32.8614E-03     35.2533E-03
            1179            2029     35.7566E-03     38.1122E-03
            1180            2011     35.8154E-03     37.9566E-03
            1180            2012     39.0901E-03     41.1600E-03
            1180            2029     35.7566E-03     38.1122E-03
            1180            2030     38.8009E-03     41.1353E-03
            1181            2012     39.0901E-03     41.1600E-03
            1181            2013     42.4066E-03     44.4327E-03
            1181            2030     38.8009E-03     41.1353E-03
            1181            2031     41.9681E-03     44.3041E-03
            1182            2013     42.4066E-03     44.4327E-03
            1182            2014     45.7810E-03     47.7922E-03
            1182            2031     41.9681E-03     44.3041E-03
            1182            2032     45.2164E-03     47.5602E-03
            1183            2014     45.7810E-03     47.7922E-03
            1183            2015     49.1919E-03     51.2111E-03
            1183            2032     45.2164E-03     47.5602E-03
            1183            2033     48.5194E-03     50.8760E-03
            1184            2015     49.1919E-03     51.2111E-03
            1184            2016     52.6429E-03     54.6844E-03
            1184            2033     48.5194E-03     50.8760E-03
            1184            2034     51.8647E-03     54.2418E-03
            1185            2016     52.6429E-03     54.6844E-03
            1185            2017     56.1351E-03     58.2180E-03
            1185            2034     51.8647E-03     54.2418E-03
            1185            2035     55.2540E-03     57.6511E-03
            1186            2017     56.1351E-03     58.2180E-03
            1186            2018     59.6839E-03     61.8187E-03
            1186            2035     55.2540E-03     57.6511E-03
            1186            2036     58.6979E-03     61.1281E-03
            1187            2018     59.6839E-03     61.8187E-03
            1187            2019     63.3195E-03     65.5260E-03
            1187            2036     58.6979E-03     61.1281E-03
            1187            2037     62.2371E-03     64.6966E-03
            1188            2019     63.3195E-03     65.5260E-03
            1188            2020     67.0827E-03     69.3664E-03
            1188            2037     62.2371E-03     64.6966E-03
            1188            2038     65.9280E-03     68.4349E-03
            1189            2020     67.0827E-03     69.3664E-03
            1189            2021     71.0820E-03     73.4343E-03
            1189            2038     65.9280E-03     68.4349E-03
            1189            2039     69.8813E-03     72.4197E-03
            1190            2021     71.0820E-03     73.4343E-03
            1190            2022     75.3774E-03     77.7861E-03
            1190            2039     69.8813E-03     72.4197E-03
            1190            2040     74.2989E-03     76.8515E-03
            1191            2022     75.3774E-03     77.7861E-03
            1191            2023     80.3025E-03     82.5922E-03
            1191            2040     74.2989E-03     76.8515E-03
            1191            2041     79.3645E-03     81.8969E-03
            1192            2023     80.3025E-03     82.5922E-03
            1192            2024     85.7513E-03     87.9054E-03
            1192            2041     79.3645E-03     81.8969E-03
            1192            2042     85.8732E-03     88.0463E-03
            1193             367     91.5020E-03     93.5088E-03
            1193             368     93.4416E-03     95.2740E-03
            1193            2024     85.7513E-03     87.9054E-03
            1193            2042     85.8732E-03     88.0463E-03
            1194             428     23.9261E-03     23.9631E-03
            1194             429     21.3143E-03     21.3114E-03
            1194            2025     24.0248E-03     26.6826E-03
            1194            2043     26.7109E-03     29.7414E-03
            1195            2025     24.0248E-03     26.6826E-03
            1195            2026     27.4179E-03     30.1325E-03
            1195            2043     26.7109E-03     29.7414E-03
            1195            2044     29.3019E-03     31.9012E-03
            1196            2026     27.4179E-03     30.1325E-03
            1196            2027     30.2477E-03     32.7627E-03
            1196            2044     29.3019E-03     31.9012E-03
            1196            2045     30.8419E-03     33.2973E-03
            1197            2027     30.2477E-03     32.7627E-03
            1197            2028     32.8614E-03     35.2533E-03
            1197            2045     30.8419E-03     33.2973E-03
            1197            2046     33.0324E-03     35.5286E-03
            1198            2028     32.8614E-03     35.2533E-03
            1198            2029     35.7566E-03     38.1122E-03
            1198            2046     33.0324E-03     35.5286E-03
            1198            2047     35.6396E-03     38.1911E-03
            1199            2029     35.7566E-03     38.1122E-03
            1199            2030     38.8009E-03     41.1353E-03
            1199            2047     35.6396E-03     38.1911E-03
            1199            2048     38.4770E-03     41.0874E-03
            1200            2030     38.8009E-03     41.1353E-03
            1200            2031     41.9681E-03     44.3041E-03
            1200            2048     38.4770E-03     41.0874E-03
            1200            2049     41.4968E-03     44.1488E-03
            1201            2031     41.9681E-03     44.3041E-03
            1201            2032     45.2164E-03     47.5602E-03
            1201            2049     41.4968E-03     44.1488E-03
            1201            2050     44.6073E-03     47.2907E-03
            1202            2032     45.2164E-03     47.5602E-03
            1202            2033     48.5194E-03     50.8760E-03
            1202            2050     44.6073E-03     47.2907E-03
            1202            2051     47.7884E-03     50.4917E-03
            1203            2033     48.5194E-03     50.8760E-03
            1203            2034     51.8647E-03     54.2418E-03
            1203            2051     47.7884E-03     50.4917E-03
            1203            2052     51.0122E-03     53.7228E-03
            1204            2034     51.8647E-03     54.2418E-03
            1204            2035     55.2540E-03     57.6511E-03
            1204            2052     51.0122E-03     53.7228E-03
            1204            2053     54.2763E-03     56.9899E-03
            1205            2035     55.2540E-03     57.6511E-03
            1205            2036     58.6979E-03     61.1281E-03
            1205            2053     54.2763E-03     56.9899E-03
            1205            2054     57.5988E-03     60.3006E-03
            1206            2036     58.6979E-03     61.1281E-03
            1206            2037     62.2371E-03     64.6966E-03
            1206            2054     57.5988E-03     60.3006E-03
            1206            2055     61.0023E-03     63.6972E-03
            1207            2037     62.2371E-03     64.6966E-03
            1207            2038     65.9280E-03     68.4349E-03
            1207            2055     61.0023E-03     63.6972E-03
            1207            2056     64.5717E-03     67.2410E-03
            1208            2038     65.9280E-03     68.4349E-03
            1208            2039     69.8813E-03     72.4197E-03
            1208            2056     64.5717E-03     67.2410E-03
            1208            2057     68.3888E-03     71.0539E-03
            1209            2039     69.8813E-03     72.4197E-03
            1209            2040     74.2989E-03     76.8515E-03
            1209            2057     68.3888E-03     71.0539E-03
            1209            2058     72.6810E-03     75.3157E-03
            1210            2040     74.2989E-03     76.8515E-03
            1210            2041     79.3645E-03     81.8969E-03
            1210            2058     72.6810E-03     75.3157E-03
            1210            2059     77.7332E-03     80.3616E-03
            1211            2041     79.3645E-03     81.8969E-03
            1211            2042     85.8732E-03     88.0463E-03
            1211            2059     77.7332E-03     80.3616E-03
            1211            2060     84.0507E-03     86.6259E-03
            1212             368     93.4416E-03     95.2740E-03
            1212             369     93.4808E-03     95.3646E-03
            1212            2042     85.8732E-03     88.0463E-03
            1212            2060     84.0507E-03     86.6259E-03
            1213             427     28.6594E-03     29.0209E-03
            1213             428     23.9261E-03     23.9631E-03
            1213            2043     26.7109E-03     29.7414E-03
            1213            2061     30.7114E-03     32.8216E-03
            1214            2043     26.7109E-03     29.7414E-03
            1214            2044     29.3019E-03     31.9012E-03
            1214            2061     30.7114E-03     32.8216E-03
            1214            2062     30.4315E-03     32.5451E-03
            1215            2044     29.3019E-03     31.9012E-03
            1215            2045     30.8419E-03     33.2973E-03
            1215            2062     30.4315E-03     32.5451E-03
            1215            2063     31.1759E-03     33.5698E-03
            1216            2045     30.8419E-03     33.2973E-03
            1216            2046     33.0324E-03     35.5286E-03
            1216            2063     31.1759E-03     33.5698E-03
            1216            2064     33.1576E-03     35.7728E-03
            1217            2046     33.0324E-03     35.5286E-03
            1217            2047     35.6396E-03     38.1911E-03
            1217            2064     33.1576E-03     35.7728E-03
            1217            2065     35.4994E-03     38.2935E-03
            1218            2047     35.6396E-03     38.1911E-03
            1218            2048     38.4770E-03     41.0874E-03
            1218            2065     35.4994E-03     38.2935E-03
            1218            2066     38.2046E-03     41.1198E-03
            1219            2048     38.4770E-03     41.0874E-03
            1219            2049     41.4968E-03     44.1488E-03
            1219            2066     38.2046E-03     41.1198E-03
            1219            2067     41.0579E-03     44.0576E-03
            1220            2049     41.4968E-03     44.1488E-03
            1220            2050     44.6073E-03     47.2907E-03
            1220            2067     41.0579E-03     44.0576E-03
            1220            2068     44.0412E-03     47.0895E-03
            1221            2050     44.6073E-03     47.2907E-03
            1221            2051     47.7884E-03     50.4917E-03
            1221            2068     44.0412E-03     47.0895E-03
            1221            2069     47.0841E-03     50.1541E-03
            1222            2051     47.7884E-03     50.4917E-03
            1222            2052     51.0122E-03     53.7228E-03
            1222            2069     47.0841E-03     50.1541E-03
            1222            2070     50.1780E-03     53.2470E-03
            1223            2052     51.0122E-03     53.7228E-03
            1223            2053     54.2763E-03     56.9899E-03
            1223            2070     50.1780E-03     53.2470E-03
            1223            2071     53.3137E-03     56.3561E-03
            1224            2053     54.2763E-03     56.9899E-03
            1224            2054     57.5988E-03     60.3006E-03
            1224            2071     53.3137E-03     56.3561E-03
            1224            2072     56.4992E-03     59.4959E-03
            1225            2054     57.5988E-03     60.3006E-03
            1225            2055     61.0023E-03     63.6972E-03
            1225            2072     56.4992E-03     59.4959E-03
            1225            2073     59.7790E-03     62.7000E-03
            1226            2055     61.0023E-03     63.6972E-03
            1226            2056     64.5717E-03     67.2410E-03
            1226            2073     59.7790E-03     62.7000E-03
            1226            2074     63.1897E-03     66.0209E-03
            1227            2056     64.5717E-03     67.2410E-03
            1227            2057     68.3888E-03     71.0539E-03
            1227            2074     63.1897E-03     66.0209E-03
            1227            2075     66.8720E-03     69.5865E-03
            1228            2057     68.3888E-03     71.0539E-03
            1228            2058     72.6810E-03     75.3157E-03
            1228            2075     66.8720E-03     69.5865E-03
            1228            2076     70.9193E-03     73.5373E-03
            1229            2058     72.6810E-03     75.3157E-03
            1229            2059     77.7332E-03     80.3616E-03
            1229            2076     70.9193E-03     73.5373E-03
            1229            2077     75.7337E-03     78.2736E-03
            1230            2059     77.7332E-03     80.3616E-03
            1230            2060     84.0507E-03     86.6259E-03
            1230            2077     75.7337E-03     78.2736E-03
            1230            2078     81.5678E-03     84.1648E-03
            1231             369     93.4808E-03     95.3646E-03
            1231             370     90.0215E-03     92.8914E-03
            1231            2060     84.0507E-03     86.6259E-03
            1231            2078     81.5678E-03     84.1648E-03
            1232             426     29.5649E-03     32.7252E-03
            1232             427     28.6594E-03     29.0209E-03
            1232            2061     30.7114E-03     32.8216E-03
            1232            2079     34.8113E-03     34.5129E-03
            1233            2061     30.7114E-03     32.8216E-03
            1233            2062     30.4315E-03     32.5451E-03
            1233            2079     34.8113E-03     34.5129E-03
            1233            2080     34.7700E-03     35.1882E-03
            1234            2062     30.4315E-03     32.5451E-03
            1234            2063     31.1759E-03     33.5698E-03
            1234            2080     34.7700E-03     35.1882E-03
            1234            2081     36.7457E-03     37.6946E-03
            1235            2063     31.1759E-03     33.5698E-03
            1235            2064     33.1576E-03     35.7728E-03
            1235            2081     36.7457E-03     37.6946E-03
            1235            2082     39.5504E-03     40.9131E-03
            1236            2064     33.1576E-03     35.7728E-03
            1236            2065     35.4994E-03     38.2935E-03
            1236            2082     39.5504E-03     40.9131E-03
            1236            2083     42.7379E-03     44.3657E-03
            1237            2065     35.4994E-03     38.2935E-03
            1237            2066     38.2046E-03     41.1198E-03
            1237            2083     42.7379E-03     44.3657E-03
            1237            2084     46.1871E-03     47.9711E-03
            1238            2066     38.2046E-03     41.1198E-03
            1238            2067     41.0579E-03     44.0576E-03
            1238            2084     46.1871E-03     47.9711E-03
            1238            2085     49.7485E-03     51.6188E-03
            1239            2067     41.0579E-03     44.0576E-03
            1239            2068     44.0412E-03     47.0895E-03
            1239            2085     49.7485E-03     51.6188E-03
            1239            2086     53.3904E-03     55.2886E-03
            1240            2068     44.0412E-03     47.0895E-03
            1240            2069     47.0841E-03     50.1541E-03
            1240            2086     53.3904E-03     55.2886E-03
            1240            2087     57.0486E-03     58.9405E-03
            1241            2069     47.0841E-03     50.1541E-03
            1241            2070     50.1780E-03     53.2470E-03
            1241            2087     57.0486E-03     58.9405E-03
            1241            2088     60.7205E-03     62.5646E-03
            1242            2070     50.1780E-03     53.2470E-03
            1242            2071     53.3137E-03     56.3561E-03
            1242            2088     60.7205E-03     62.5646E-03
            1242            2089     64.3725E-03     66.1471E-03
            1243            2071     53.3137E-03     56.3561E-03
            1243            2072     56.4992E-03     59.4959E-03
            1243            2089     64.3725E-03     66.1471E-03
            1243            2090     68.0228E-03     69.6751E-03
            1244            2072     56.4992E-03     59.4959E-03
            1244            2073     59.7790E-03     62.7000E-03
            1244            2090     68.0228E-03     69.6751E-03
            1244            2091     71.6469E-03     73.1594E-03
            1245            2073     59.7790E-03     62.7000E-03
            1245            2074     63.1897E-03     66.0209E-03
            1245            2091     71.6469E-03     73.1594E-03
            1245            2092     75.2990E-03     76.5876E-03
            1246            2074     63.1897E-03     66.0209E-03
            1246            2075     66.8720E-03     69.5865E-03
            1246            2092     75.2990E-03     76.5876E-03
            1246            2093     78.9492E-03     80.0159E-03
            1247            2075     66.8720E-03     69.5865E-03
            1247            2076     70.9193E-03     73.5373E-03
            1247            2093     78.9492E-03     80.0159E-03
            1247            2094     82.7412E-03     83.4719E-03
            1248            2076     70.9193E-03     73.5373E-03
            1248            2077     75.7337E-03     78.2736E-03
            1248            2094     82.7412E-03     83.4719E-03
            1248            2095     86.6200E-03     87.1031E-03
            1249            2077     75.7337E-03     78.2736E-03
            1249            2078     81.5678E-03     84.1648E-03
            1249            2095     86.6200E-03     87.1031E-03
            1249            2096     91.0070E-03     91.1907E-03
            1250             370     90.0215E-03     92.8914E-03
            1250             371     95.8135E-03     96.0964E-03
            1250            2078     81.5678E-03     84.1648E-03
            1250            2096     91.0070E-03     91.1907E-03
            1251             425     27.9159E-03     31.8728E-03
            1251             426     29.5649E-03     32.7252E-03
            1251            2079     34.8113E-03     34.5129E-03
            1251            2097     33.6429E-03     35.5855E-03
            1252            2079     34.8113E-03     34.5129E-03
            1252            2080     34.7700E-03     35.1882E-03
            1252            2097     33.6429E-03     35.5855E-03
            1252            2098     37.9206E-03     38.1764E-03
            1253            2080     34.7700E-03     35.1882E-03
            1253            2081     36.7457E-03     37.6946E-03
            1253            2098     37.9206E-03     38.1764E-03
            1253            2099     41.6856E-03     41.8165E-03
            1254            2081     36.7457E-03     37.6946E-03
            1254            2082     39.5504E-03     40.9131E-03
            1254            2099     41.6856E-03     41.8165E-03
            1254            2100     45.8676E-03     46.1867E-03
            1255            2082     39.5504E-03     40.9131E-03
            1255            2083     42.7379E-03     44.3657E-03
            1255            2100     45.8676E-03     46.1867E-03
            1255            2101     50.1530E-03     50.6487E-03
            1256            2083     42.7379E-03     44.3657E-03
            1256            2084     46.1871E-03     47.9711E-03
            1256            2101     50.1530E-03     50.6487E-03
            1256            2102     54.5730E-03     55.1795E-03
            1257            2084     46.1871E-03     47.9711E-03
            1257            2085     49.7485E-03     51.6188E-03
            1257            2102     54.5730E-03     55.1795E-03
            1257            2103     59.0231E-03     59.6850E-03
            1258            2085     49.7485E-03     51.6188E-03
            1258            2086     53.3904E-03     55.2886E-03
            1258            2103     59.0231E-03     59.6850E-03
            1258            2104     63.4940E-03     64.1631E-03
            1259            2086     53.3904E-03     55.2886E-03
            1259            2087     57.0486E-03     58.9405E-03
            1259            2104     63.4940E-03     64.1631E-03
            1259            2105     67.9507E-03     68.5904E-03
            1260            2087     57.0486E-03     58.9405E-03
            1260            2088     60.7205E-03     62.5646E-03
            1260            2105     67.9507E-03     68.5904E-03
            1260            2106     72.3824E-03     72.9651E-03
            1261            2088     60.7205E-03     62.5646E-03
            1261            2089     64.3725E-03     66.1471E-03
            1261            2106     72.3824E-03     72.9651E-03
            1261            2107     76.7716E-03     77.2641E-03
            1262            2089     64.3725E-03     66.1471E-03
            1262            2090     68.0228E-03     69.6751E-03
            1262            2107     76.7716E-03     77.2641E-03
            1262            2108     81.1000E-03     81.4788E-03
            1263            2090     68.0228E-03     69.6751E-03
            1263            2091     71.6469E-03     73.1594E-03
            1263            2108     81.1000E-03     81.4788E-03
            1263            2109     85.3464E-03     85.5711E-03
            1264            2091     71.6469E-03     73.1594E-03
            1264            2092     75.2990E-03     76.5876E-03
            1264            2109     85.3464E-03     85.5711E-03
            1264            2110     89.4780E-03     89.5187E-03
            1265            2092     75.2990E-03     76.5876E-03
            1265            2093     78.9492E-03     80.0159E-03
            1265            2110     89.4780E-03     89.5187E-03
            1265            2111     93.4519E-03     93.2696E-03
            1266            2093     78.9492E-03     80.0159E-03
            1266            2094     82.7412E-03     83.4719E-03
            1266            2111     93.4519E-03     93.2696E-03
            1266            2112     97.2109E-03     96.7747E-03
            1267            2094     82.7412E-03     83.4719E-03
            1267            2095     86.6200E-03     87.1031E-03
            1267            2112     97.2109E-03     96.7747E-03
            1267            2113     100.679E-03     99.9911E-03
            1268            2095     86.6200E-03     87.1031E-03
            1268            2096     91.0070E-03     91.1907E-03
            1268            2113     100.679E-03     99.9911E-03
            1268            2114     103.721E-03     102.814E-03
            1269             371     95.8135E-03     96.0964E-03
            1269             372     106.217E-03     105.223E-03
            1269            2096     91.0070E-03     91.1907E-03
            1269            2114     103.721E-03     102.814E-03
            1270             424     27.2483E-03     28.1801E-03
            1270             425     27.9159E-03     31.8728E-03
            1270            2097     33.6429E-03     35.5855E-03
            1270            2115     30.2016E-03     34.2262E-03
            1271            2097     33.6429E-03     35.5855E-03
            1271            2098     37.9206E-03     38.1764E-03
            1271            2115     30.2016E-03     34.2262E-03
            1271            2116     35.8916E-03     38.4247E-03
            1272            2098     37.9206E-03     38.1764E-03
            1272            2099     41.6856E-03     41.8165E-03
            1272            2116     35.8916E-03     38.4247E-03
            1272            2117     40.9371E-03     42.2563E-03
            1273            2099     41.6856E-03     41.8165E-03
            1273            2100     45.8676E-03     46.1867E-03
            1273            2117     40.9371E-03     42.2563E-03
            1273            2118     45.7227E-03     46.7176E-03
            1274            2100     45.8676E-03     46.1867E-03
            1274            2101     50.1530E-03     50.6487E-03
            1274            2118     45.7227E-03     46.7176E-03
            1274            2119     50.4272E-03     51.3481E-03
            1275            2101     50.1530E-03     50.6487E-03
            1275            2102     54.5730E-03     55.1795E-03
            1275            2119     50.4272E-03     51.3481E-03
            1275            2120     55.1033E-03     56.0187E-03
            1276            2102     54.5730E-03     55.1795E-03
            1276            2103     59.0231E-03     59.6850E-03
            1276            2120     55.1033E-03     56.0187E-03
            1276            2121     59.7677E-03     60.6944E-03
            1277            2103     59.0231E-03     59.6850E-03
            1277            2104     63.4940E-03     64.1631E-03
            1277            2121     59.7677E-03     60.6944E-03
            1277            2122     64.4256E-03     65.3526E-03
            1278            2104     63.4940E-03     64.1631E-03
            1278            2105     67.9507E-03     68.5904E-03
            1278            2122     64.4256E-03     65.3526E-03
            1278            2123     69.0810E-03     70.0002E-03
            1279            2105     67.9507E-03     68.5904E-03
            1279            2106     72.3824E-03     72.9651E-03
            1279            2123     69.0810E-03     70.0002E-03
            1279            2124     73.7333E-03     74.6264E-03
            1280            2106     72.3824E-03     72.9651E-03
            1280            2107     76.7716E-03     77.2641E-03
            1280            2124     73.7333E-03     74.6264E-03
            1280            2125     78.3742E-03     79.2390E-03
            1281            2107     76.7716E-03     77.2641E-03
            1281            2108     81.1000E-03     81.4788E-03
            1281            2125     78.3742E-03     79.2390E-03
            1281            2126     82.9984E-03     83.8155E-03
            1282            2108     81.1000E-03     81.4788E-03
            1282            2109     85.3464E-03     85.5711E-03
            1282            2126     82.9984E-03     83.8155E-03
            1282            2127     87.5751E-03     88.3559E-03
            1283            2109     85.3464E-03     85.5711E-03
            1283            2110     89.4780E-03     89.5187E-03
            1283            2127     87.5751E-03     88.3559E-03
            1283            2128     92.0810E-03     92.8114E-03
            1284            2110     89.4780E-03     89.5187E-03
            1284            2111     93.4519E-03     93.2696E-03
            1284            2128     92.0810E-03     92.8114E-03
            1284            2129     96.4483E-03     97.1657E-03
            1285            2111     93.4519E-03     93.2696E-03
            1285            2112     97.2109E-03     96.7747E-03
            1285            2129     96.4483E-03     97.1657E-03
            1285            2130     100.605E-03     101.326E-03
            1286            2112     97.2109E-03     96.7747E-03
            1286            2113     100.679E-03     99.9911E-03
            1286            2130     100.605E-03     101.326E-03
            1286            2131     104.432E-03     105.244E-03
            1287            2113     100.679E-03     99.9911E-03
            1287            2114     103.721E-03     102.814E-03
            1287            2131     104.432E-03     105.244E-03
            1287            2132     107.770E-03     108.753E-03
            1288             372     106.217E-03     105.223E-03
            1288             373     110.598E-03     111.664E-03
            1288            2114     103.721E-03     102.814E-03
            1288            2132     107.770E-03     108.753E-03
            1289             423     25.8876E-03     25.9371E-03
            1289             424     27.2483E-03     28.1801E-03
            1289            2115     30.2016E-03     34.2262E-03
            1289            2133     29.2651E-03     32.2995E-03
            1290            2115     30.2016E-03     34.2262E-03
            1290            2116     35.8916E-03     38.4247E-03
            1290            2133     29.2651E-03     32.2995E-03
            1290            2134     34.7983E-03     37.9747E-03
            1291            2116     35.8916E-03     38.4247E-03
            1291            2117     40.9371E-03     42.2563E-03
            1291            2134     34.7983E-03     37.9747E-03
            1291            2135     40.4213E-03     42.7722E-03
            1292            2117     40.9371E-03     42.2563E-03
            1292            2118     45.7227E-03     46.7176E-03
            1292            2135     40.4213E-03     42.7722E-03
            1292            2136     45.6586E-03     47.3618E-03
            1293            2118     45.7227E-03     46.7176E-03
            1293            2119     50.4272E-03     51.3481E-03
            1293            2136     45.6586E-03     47.3618E-03
            1293            2137     50.6783E-03     52.1276E-03
            1294            2119     50.4272E-03     51.3481E-03
            1294            2120     55.1033E-03     56.0187E-03
            1294            2137     50.6783E-03     52.1276E-03
            1294            2138     55.5617E-03     56.8828E-03
            1295            2120     55.1033E-03     56.0187E-03
            1295            2121     59.7677E-03     60.6944E-03
            1295            2138     55.5617E-03     56.8828E-03
            1295            2139     60.3891E-03     61.6595E-03
            1296            2121     59.7677E-03     60.6944E-03
            1296            2122     64.4256E-03     65.3526E-03
            1296            2139     60.3891E-03     61.6595E-03
            1296            2140     65.1909E-03     66.4430E-03
            1297            2122     64.4256E-03     65.3526E-03
            1297            2123     69.0810E-03     70.0002E-03
            1297            2140     65.1909E-03     66.4430E-03
            1297            2141     69.9932E-03     71.2384E-03
            1298            2123     69.0810E-03     70.0002E-03
            1298            2124     73.7333E-03     74.6264E-03
            1298            2141     69.9932E-03     71.2384E-03
            1298            2142     74.8046E-03     76.0581E-03
            1299            2124     73.7333E-03     74.6264E-03
            1299            2125     78.3742E-03     79.2390E-03
            1299            2142     74.8046E-03     76.0581E-03
            1299            2143     79.6336E-03     80.8949E-03
            1300            2125     78.3742E-03     79.2390E-03
            1300            2126     82.9984E-03     83.8155E-03
            1300            2143     79.6336E-03     80.8949E-03
            1300            2144     84.4659E-03     85.7594E-03
            1301            2126     82.9984E-03     83.8155E-03
            1301            2127     87.5751E-03     88.3559E-03
            1301            2144     84.4659E-03     85.7594E-03
            1301            2145     89.2995E-03     90.6259E-03
            1302            2127     87.5751E-03     88.3559E-03
            1302            2128     92.0810E-03     92.8114E-03
            1302            2145     89.2995E-03     90.6259E-03
            1302            2146     94.0849E-03     95.4931E-03
            1303            2128     92.0810E-03     92.8114E-03
            1303            2129     96.4483E-03     97.1657E-03
            1303            2146     94.0849E-03     95.4931E-03
            1303            2147     98.7800E-03     100.286E-03
            1304            2129     96.4483E-03     97.1657E-03
            1304            2130     100.605E-03     101.326E-03
            1304            2147     98.7800E-03     100.286E-03
            1304            2148     103.294E-03     104.960E-03
            1305            2130     100.605E-03     101.326E-03
            1305            2131     104.432E-03     105.244E-03
            1305            2148     103.294E-03     104.960E-03
            1305            2149     107.469E-03     109.353E-03
            1306            2131     104.432E-03     105.244E-03
            1306            2132     107.770E-03     108.753E-03
            1306            2149     107.469E-03     109.353E-03
            1306            2150     111.277E-03     113.281E-03
            1307             373     110.598E-03     111.664E-03
            1307             374     114.535E-03     116.580E-03
            1307            2132     107.770E-03     108.753E-03
            1307            2150     111.277E-03     113.281E-03
            1308             422     25.3643E-03     25.6188E-03
            1308             423     25.8876E-03     25.9371E-03
            1308            2133     29.2651E-03     32.2995E-03
            1308            2151     28.8838E-03     32.3221E-03
            1309            2133     29.2651E-03     32.2995E-03
            1309            2134     34.7983E-03     37.9747E-03
            1309            2151     28.8838E-03     32.3221E-03
            1309            2152     34.6749E-03     37.7247E-03
            1310            2134     34.7983E-03     37.9747E-03
            1310            2135     40.4213E-03     42.7722E-03
            1310            2152     34.6749E-03     37.7247E-03
            1310            2153     40.3154E-03     43.1042E-03
            1311            2135     40.4213E-03     42.7722E-03
            1311            2136     45.6586E-03     47.3618E-03
            1311            2153     40.3154E-03     43.1042E-03
            1311            2154     45.7442E-03     48.0442E-03
            1312            2136     45.6586E-03     47.3618E-03
            1312            2137     50.6783E-03     52.1276E-03
            1312            2154     45.7442E-03     48.0442E-03
            1312            2155     50.9003E-03     52.8284E-03
            1313            2137     50.6783E-03     52.1276E-03
            1313            2138     55.5617E-03     56.8828E-03
            1313            2155     50.9003E-03     52.8284E-03
            1313            2156     55.8937E-03     57.6392E-03
            1314            2138     55.5617E-03     56.8828E-03
            1314            2139     60.3891E-03     61.6595E-03
            1314            2156     55.8937E-03     57.6392E-03
            1314            2157     60.8018E-03     62.4425E-03
            1315            2139     60.3891E-03     61.6595E-03
            1315            2140     65.1909E-03     66.4430E-03
            1315            2157     60.8018E-03     62.4425E-03
            1315            2158     65.6801E-03     67.2797E-03
            1316            2140     65.1909E-03     66.4430E-03
            1316            2141     69.9932E-03     71.2384E-03
            1316            2158     65.6801E-03     67.2797E-03
            1316            2159     70.5627E-03     72.1592E-03
            1317            2141     69.9932E-03     71.2384E-03
            1317            2142     74.8046E-03     76.0581E-03
            1317            2159     70.5627E-03     72.1592E-03
            1317            2160     75.4680E-03     77.0840E-03
            1318            2142     74.8046E-03     76.0581E-03
            1318            2143     79.6336E-03     80.8949E-03
            1318            2160     75.4680E-03     77.0840E-03
            1318            2161     80.4015E-03     82.0673E-03
            1319            2143     79.6336E-03     80.8949E-03
            1319            2144     84.4659E-03     85.7594E-03
            1319            2161     80.4015E-03     82.0673E-03
            1319            2162     85.3742E-03     87.1045E-03
            1320            2144     84.4659E-03     85.7594E-03
            1320            2145     89.2995E-03     90.6259E-03
            1320            2162     85.3742E-03     87.1045E-03
            1320            2163     90.3644E-03     92.2035E-03
            1321            2145     89.2995E-03     90.6259E-03
            1321            2146     94.0849E-03     95.4931E-03
            1321            2163     90.3644E-03     92.2035E-03
            1321            2164     95.3733E-03     97.3352E-03
            1322            2146     94.0849E-03     95.4931E-03
            1322            2147     98.7800E-03     100.286E-03
            1322            2164     95.3733E-03     97.3352E-03
            1322            2165     100.338E-03     102.479E-03
            1323            2147     98.7800E-03     100.286E-03
            1323            2148     103.294E-03     104.960E-03
            1323            2165     100.338E-03     102.479E-03
            1323            2166     105.184E-03     107.520E-03
            1324            2148     103.294E-03     104.960E-03
            1324            2149     107.469E-03     109.353E-03
            1324            2166     105.184E-03     107.520E-03
            1324            2167     109.842E-03     112.317E-03
            1325            2149     107.469E-03     109.353E-03
            1325            2150     111.277E-03     113.281E-03
            1325            2167     109.842E-03     112.317E-03
            1325            2168     114.084E-03     116.667E-03
            1326             374     114.535E-03     116.580E-03
            1326             375     118.064E-03     120.348E-03
            1326            2150     111.277E-03     113.281E-03
            1326            2168     114.084E-03     116.667E-03
            1327             421     25.5427E-03     25.3927E-03
            1327             422     25.3643E-03     25.6188E-03
            1327            2151     28.8838E-03     32.3221E-03
            1327            2169     29.3332E-03     32.7273E-03
            1328            2151     28.8838E-03     32.3221E-03
            1328            2152     34.6749E-03     37.7247E-03
            1328            2169     29.3332E-03     32.7273E-03
            1328            2170     34.9939E-03     38.3040E-03
            1329            2152     34.6749E-03     37.7247E-03
            1329            2153     40.3154E-03     43.1042E-03
            1329            2170     34.9939E-03     38.3040E-03
            1329            2171     40.6391E-03     43.5921E-03
            1330            2153     40.3154E-03     43.1042E-03
            1330            2154     45.7442E-03     48.0442E-03
            1330            2171     40.6391E-03     43.5921E-03
            1330            2172     45.9820E-03     48.6215E-03
            1331            2154     45.7442E-03     48.0442E-03
            1331            2155     50.9003E-03     52.8284E-03
            1331            2172     45.9820E-03     48.6215E-03
            1331            2173     51.1010E-03     53.4323E-03
            1332            2155     50.9003E-03     52.8284E-03
            1332            2156     55.8937E-03     57.6392E-03
            1332            2173     51.1010E-03     53.4323E-03
            1332            2174     56.0707E-03     58.1796E-03
            1333            2156     55.8937E-03     57.6392E-03
            1333            2157     60.8018E-03     62.4425E-03
            1333            2174     56.0707E-03     58.1796E-03
            1333            2175     60.9613E-03     62.9539E-03
            1334            2157     60.8018E-03     62.4425E-03
            1334            2158     65.6801E-03     67.2797E-03
            1334            2175     60.9613E-03     62.9539E-03
            1334            2176     65.8430E-03     67.7824E-03
            1335            2158     65.6801E-03     67.2797E-03
            1335            2159     70.5627E-03     72.1592E-03
            1335            2176     65.8430E-03     67.7824E-03
            1335            2177     70.7350E-03     72.6701E-03
            1336            2159     70.5627E-03     72.1592E-03
            1336            2160     75.4680E-03     77.0840E-03
            1336            2177     70.7350E-03     72.6701E-03
            1336            2178     75.6603E-03     77.6282E-03
            1337            2160     75.4680E-03     77.0840E-03
            1337            2161     80.4015E-03     82.0673E-03
            1337            2178     75.6603E-03     77.6282E-03
            1337            2179     80.6313E-03     82.6602E-03
            1338            2161     80.4015E-03     82.0673E-03
            1338            2162     85.3742E-03     87.1045E-03
            1338            2179     80.6313E-03     82.6602E-03
            1338            2180     85.6501E-03     87.7764E-03
            1339            2162     85.3742E-03     87.1045E-03
            1339            2163     90.3644E-03     92.2035E-03
            1339            2180     85.6501E-03     87.7764E-03
            1339            2181     90.7365E-03     92.9835E-03
            1340            2163     90.3644E-03     92.2035E-03
            1340            2164     95.3733E-03     97.3352E-03
            1340            2181     90.7365E-03     92.9835E-03
            1340            2182     95.8704E-03     98.2821E-03
            1341            2164     95.3733E-03     97.3352E-03
            1341            2165     100.338E-03     102.479E-03
            1341            2182     95.8704E-03     98.2821E-03
            1341            2183     101.074E-03     103.651E-03
            1342            2165     100.338E-03     102.479E-03
            1342            2166     105.184E-03     107.520E-03
            1342            2183     101.074E-03     103.651E-03
            1342            2184     106.283E-03     109.031E-03
            1343            2166     105.184E-03     107.520E-03
            1343            2167     109.842E-03     112.317E-03
            1343            2184     106.283E-03     109.031E-03
            1343            2185     111.406E-03     114.266E-03
            1344            2167     109.842E-03     112.317E-03
            1344            2168     114.084E-03     116.667E-03
            1344            2185     111.406E-03     114.266E-03
            1344            2186     116.389E-03     119.124E-03
            1345             375     118.064E-03     120.348E-03
            1345             376     121.034E-03     123.434E-03
            1345            2168     114.084E-03     116.667E-03
            1345            2186     116.389E-03     119.124E-03
            1346             420     26.1273E-03     26.1218E-03
            1346             421     25.5427E-03     25.3927E-03
            1346            2169     29.3332E-03     32.7273E-03
            1346            2187     30.1837E-03     33.7416E-03
            1347            2169     29.3332E-03     32.7273E-03
            1347            2170     34.9939E-03     38.3040E-03
            1347            2187     30.1837E-03     33.7416E-03
            1347            2188     35.8569E-03     39.2641E-03
            1348            2170     34.9939E-03     38.3040E-03
            1348            2171     40.6391E-03     43.5921E-03
            1348            2188     35.8569E-03     39.2641E-03
            1348            2189     41.2455E-03     44.3886E-03
            1349            2171     40.6391E-03     43.5921E-03
            1349            2172     45.9820E-03     48.6215E-03
            1349            2189     41.2455E-03     44.3886E-03
            1349            2190     46.3624E-03     49.2126E-03
            1350            2172     45.9820E-03     48.6215E-03
            1350            2173     51.1010E-03     53.4323E-03
            1350            2190     46.3624E-03     49.2126E-03
            1350            2191     51.2724E-03     53.8696E-03
            1351            2173     51.1010E-03     53.4323E-03
            1351            2174     56.0707E-03     58.1796E-03
            1351            2191     51.2724E-03     53.8696E-03
            1351            2192     56.0720E-03     58.4755E-03
            1352            2174     56.0707E-03     58.1796E-03
            1352            2175     60.9613E-03     62.9539E-03
            1352            2192     56.0720E-03     58.4755E-03
            1352            2193     60.8724E-03     63.1673E-03
            1353            2175     60.9613E-03     62.9539E-03
            1353            2176     65.8430E-03     67.7824E-03
            1353            2193     60.8724E-03     63.1673E-03
            1353            2194     65.6750E-03     67.9252E-03
            1354            2176     65.8430E-03     67.7824E-03
            1354            2177     70.7350E-03     72.6701E-03
            1354            2194     65.6750E-03     67.9252E-03
            1354            2195     70.5150E-03     72.7642E-03
            1355            2177     70.7350E-03     72.6701E-03
            1355            2178     75.6603E-03     77.6282E-03
            1355            2195     70.5150E-03     72.7642E-03
            1355            2196     75.3944E-03     77.6797E-03
            1356            2178     75.6603E-03     77.6282E-03
            1356            2179     80.6313E-03     82.6602E-03
            1356            2196     75.3944E-03     77.6797E-03
            1356            2197     80.3262E-03     82.6769E-03
            1357            2179     80.6313E-03     82.6602E-03
            1357            2180     85.6501E-03     87.7764E-03
            1357            2197     80.3262E-03     82.6769E-03
            1357            2198     85.3259E-03     87.7727E-03
            1358            2180     85.6501E-03     87.7764E-03
            1358            2181     90.7365E-03     92.9835E-03
            1358            2198     85.3259E-03     87.7727E-03
            1358            2199     90.4050E-03     92.9774E-03
            1359            2181     90.7365E-03     92.9835E-03
            1359            2182     95.8704E-03     98.2821E-03
            1359            2199     90.4050E-03     92.9774E-03
            1359            2200     95.6096E-03     98.3269E-03
            1360            2182     95.8704E-03     98.2821E-03
            1360            2183     101.074E-03     103.651E-03
            1360            2200     95.6096E-03     98.3269E-03
            1360            2201     100.939E-03     103.821E-03
            1361            2183     101.074E-03     103.651E-03
            1361            2184     106.283E-03     109.031E-03
            1361            2201     100.939E-03     103.821E-03
            1361            2202     106.501E-03     109.479E-03
            1362            2184     106.283E-03     109.031E-03
            1362            2185     111.406E-03     114.266E-03
            1362            2202     106.501E-03     109.479E-03
            1362            2203     112.203E-03     115.235E-03
            1363            2185     111.406E-03     114.266E-03
            1363            2186     116.389E-03     119.124E-03
            1363            2203     112.203E-03     115.235E-03
            1363            2204     117.942E-03     120.851E-03
            1364             376     121.034E-03     123.434E-03
            1364             377     123.618E-03     126.061E-03
            1364            2186     116.389E-03     119.124E-03
            1364            2204     117.942E-03     120.851E-03
            1365             419     27.4655E-03     27.4767E-03
            1365             420     26.1273E-03     26.1218E-03
            1365            2187     30.1837E-03     33.7416E-03
            1365            2205     31.6374E-03     35.3621E-03
            1366            2187     30.1837E-03     33.7416E-03
            1366            2188     35.8569E-03     39.2641E-03
            1366            2205     31.6374E-03     35.3621E-03
            1366            2206     37.1537E-03     40.6200E-03
            1367            2188     35.8569E-03     39.2641E-03
            1367            2189     41.2455E-03     44.3886E-03
            1367            2206     37.1537E-03     40.6200E-03
            1367            2207     42.1701E-03     45.4508E-03
            1368            2189     41.2455E-03     44.3886E-03
            1368            2190     46.3624E-03     49.2126E-03
            1368            2207     42.1701E-03     45.4508E-03
            1368            2208     46.8398E-03     49.8265E-03
            1369            2190     46.3624E-03     49.2126E-03
            1369            2191     51.2724E-03     53.8696E-03
            1369            2208     46.8398E-03     49.8265E-03
            1369            2209     51.3497E-03     54.0988E-03
            1370            2191     51.2724E-03     53.8696E-03
            1370            2192     56.0720E-03     58.4755E-03
            1370            2209     51.3497E-03     54.0988E-03
            1370            2210     55.9317E-03     58.5579E-03
            1371            2192     56.0720E-03     58.4755E-03
            1371            2193     60.8724E-03     63.1673E-03
            1371            2210     55.9317E-03     58.5579E-03
            1371            2211     60.5473E-03     63.1009E-03
            1372            2193     60.8724E-03     63.1673E-03
            1372            2194     65.6750E-03     67.9252E-03
            1372            2211     60.5473E-03     63.1009E-03
            1372            2212     65.2274E-03     67.7563E-03
            1373            2194     65.6750E-03     67.9252E-03
            1373            2195     70.5150E-03     72.7642E-03
            1373            2212     65.2274E-03     67.7563E-03
            1373            2213     69.9535E-03     72.4921E-03
            1374            2195     70.5150E-03     72.7642E-03
            1374            2196     75.3944E-03     77.6797E-03
            1374            2213     69.9535E-03     72.4921E-03
            1374            2214     74.7318E-03     77.3014E-03
            1375            2196     75.3944E-03     77.6797E-03
            1375            2197     80.3262E-03     82.6769E-03
            1375            2214     74.7318E-03     77.3014E-03
            1375            2215     79.5636E-03     82.1917E-03
            1376            2197     80.3262E-03     82.6769E-03
            1376            2198     85.3259E-03     87.7727E-03
            1376            2215     79.5636E-03     82.1917E-03
            1376            2216     84.4667E-03     87.1682E-03
            1377            2198     85.3259E-03     87.7727E-03
            1377            2199     90.4050E-03     92.9774E-03
            1377            2216     84.4667E-03     87.1682E-03
            1377            2217     89.4697E-03     92.2757E-03
            1378            2199     90.4050E-03     92.9774E-03
            1378            2200     95.6096E-03     98.3269E-03
            1378            2217     89.4697E-03     92.2757E-03
            1378            2218     94.6163E-03     97.5365E-03
            1379            2200     95.6096E-03     98.3269E-03
            1379            2201     100.939E-03     103.821E-03
            1379            2218     94.6163E-03     97.5365E-03
            1379            2219     100.012E-03     103.049E-03
            1380            2201     100.939E-03     103.821E-03
            1380            2202     106.501E-03     109.479E-03
            1380            2219     100.012E-03     103.049E-03
            1380            2220     105.701E-03     108.847E-03
            1381            2202     106.501E-03     109.479E-03
            1381            2203     112.203E-03     115.235E-03
            1381            2220     105.701E-03     108.847E-03
            1381            2221     112.015E-03     115.072E-03
            1382            2203     112.203E-03     115.235E-03
            1382            2204     117.942E-03     120.851E-03
            1382            2221     112.015E-03     115.072E-03
            1382            2222     118.735E-03     121.686E-03
            1383             377     123.618E-03     126.061E-03
            1383             378     125.522E-03     128.281E-03
            1383            2204     117.942E-03     120.851E-03
            1383            2222     118.735E-03     121.686E-03
            1384             418     29.4436E-03     29.5358E-03
            1384             419     27.4655E-03     27.4767E-03
            1384            2205     31.6374E-03     35.3621E-03
            1384            2223     33.8694E-03     37.5456E-03
            1385            2205     31.6374E-03     35.3621E-03
            1385            2206     37.1537E-03     40.6200E-03
            1385            2223     33.8694E-03     37.5456E-03
            1385            2224     39.0561E-03     42.7609E-03
            1386            2206     37.1537E-03     40.6200E-03
            1386            2207     42.1701E-03     45.4508E-03
            1386            2224     39.0561E-03     42.7609E-03
            1386            2225     43.3669E-03     46.6256E-03
            1387            2207     42.1701E-03     45.4508E-03
            1387            2208     46.8398E-03     49.8265E-03
            1387            2225     43.3669E-03     46.6256E-03
            1387            2226     47.2382E-03     50.1974E-03
            1388            2208     46.8398E-03     49.8265E-03
            1388            2209     51.3497E-03     54.0988E-03
            1388            2226     47.2382E-03     50.1974E-03
            1388            2227     51.3692E-03     54.2233E-03
            1389            2209     51.3497E-03     54.0988E-03
            1389            2210     55.9317E-03     58.5579E-03
            1389            2227     51.3692E-03     54.2233E-03
            1389            2228     55.6468E-03     58.4461E-03
            1390            2210     55.9317E-03     58.5579E-03
            1390            2211     60.5473E-03     63.1009E-03
            1390            2228     55.6468E-03     58.4461E-03
            1390            2229     60.0610E-03     62.8507E-03
            1391            2211     60.5473E-03     63.1009E-03
            1391            2212     65.2274E-03     67.7563E-03
            1391            2229     60.0610E-03     62.8507E-03
            1391            2230     64.5695E-03     67.3661E-03
            1392            2212     65.2274E-03     67.7563E-03
            1392            2213     69.9535E-03     72.4921E-03
            1392            2230     64.5695E-03     67.3661E-03
            1392            2231     69.1454E-03     71.9579E-03
            1393            2213     69.9535E-03     72.4921E-03
            1393            2214     74.7318E-03     77.3014E-03
            1393            2231     69.1454E-03     71.9579E-03
            1393            2232     73.7747E-03     76.6153E-03
            1394            2214     74.7318E-03     77.3014E-03
            1394            2215     79.5636E-03     82.1917E-03
            1394            2232     73.7747E-03     76.6153E-03
            1394            2233     78.4584E-03     81.3268E-03
            1395            2215     79.5636E-03     82.1917E-03
            1395            2216     84.4667E-03     87.1682E-03
            1395            2233     78.4584E-03     81.3268E-03
            1395            2234     83.2041E-03     86.1196E-03
            1396            2216     84.4667E-03     87.1682E-03
            1396            2217     89.4697E-03     92.2757E-03
            1396            2234     83.2041E-03     86.1196E-03
            1396            2235     88.0540E-03     91.0125E-03
            1397            2217     89.4697E-03     92.2757E-03
            1397            2218     94.6163E-03     97.5365E-03
            1397            2235     88.0540E-03     91.0125E-03
            1397            2236     93.0589E-03     96.0908E-03
            1398            2218     94.6163E-03     97.5365E-03
            1398            2219     100.012E-03     103.049E-03
            1398            2236     93.0589E-03     96.0908E-03
            1398            2237     98.3291E-03     101.421E-03
            1399            2219     100.012E-03     103.049E-03
            1399            2220     105.701E-03     108.847E-03
            1399            2237     98.3291E-03     101.421E-03
            1399            2238     104.064E-03     107.210E-03
            1400            2220     105.701E-03     108.847E-03
            1400            2221     112.015E-03     115.072E-03
            1400            2238     104.064E-03     107.210E-03
            1400            2239     110.420E-03     113.598E-03
            1401            2221     112.015E-03     115.072E-03
            1401            2222     118.735E-03     121.686E-03
            1401            2239     110.420E-03     113.598E-03
            1401            2240     118.225E-03     121.053E-03
            1402             378     125.522E-03     128.281E-03
            1402             379     126.884E-03     129.388E-03
            1402            2222     118.735E-03     121.686E-03
            1402            2240     118.225E-03     121.053E-03
            1403             417     32.8308E-03     33.0346E-03
            1403             418     29.4436E-03     29.5358E-03
            1403            2223     33.8694E-03     37.5456E-03
            1403            2241     37.3304E-03     41.6585E-03
            1404            2223     33.8694E-03     37.5456E-03
            1404            2224     39.0561E-03     42.7609E-03
            1404            2241     37.3304E-03     41.6585E-03
            1404            2242     41.6897E-03     45.0612E-03
            1405            2224     39.0561E-03     42.7609E-03
            1405            2225     43.3669E-03     46.6256E-03
            1405            2242     41.6897E-03     45.0612E-03
            1405            2243     44.3294E-03     47.2424E-03
            1406            2225     43.3669E-03     46.6256E-03
            1406            2226     47.2382E-03     50.1974E-03
            1406            2243     44.3294E-03     47.2424E-03
            1406            2244     47.5855E-03     50.4638E-03
            1407            2226     47.2382E-03     50.1974E-03
            1407            2227     51.3692E-03     54.2233E-03
            1407            2244     47.5855E-03     50.4638E-03
            1407            2245     51.3061E-03     54.2263E-03
            1408            2227     51.3692E-03     54.2233E-03
            1408            2228     55.6468E-03     58.4461E-03
            1408            2245     51.3061E-03     54.2263E-03
            1408            2246     55.2912E-03     58.2756E-03
            1409            2228     55.6468E-03     58.4461E-03
            1409            2229     60.0610E-03     62.8507E-03
            1409            2246     55.2912E-03     58.2756E-03
            1409            2247     59.4937E-03     62.5299E-03
            1410            2229     60.0610E-03     62.8507E-03
            1410            2230     64.5695E-03     67.3661E-03
            1410            2247     59.4937E-03     62.5299E-03
            1410            2248     63.8057E-03     66.8818E-03
            1411            2230     64.5695E-03     67.3661E-03
            1411            2231     69.1454E-03     71.9579E-03
            1411            2248     63.8057E-03     66.8818E-03
            1411            2249     68.2043E-03     71.3065E-03
            1412            2231     69.1454E-03     71.9579E-03
            1412            2232     73.7747E-03     76.6153E-03
            1412            2249     68.2043E-03     71.3065E-03
            1412            2250     72.6539E-03     75.7648E-03
            1413            2232     73.7747E-03     76.6153E-03
            1413            2233     78.4584E-03     81.3268E-03
            1413            2250     72.6539E-03     75.7648E-03
            1413            2251     77.1486E-03     80.2628E-03
            1414            2233     78.4584E-03     81.3268E-03
            1414            2234     83.2041E-03     86.1196E-03
            1414            2251     77.1486E-03     80.2628E-03
            1414            2252     81.7043E-03     84.8010E-03
            1415            2234     83.2041E-03     86.1196E-03
            1415            2235     88.0540E-03     91.0125E-03
            1415            2252     81.7043E-03     84.8010E-03
            1415            2253     86.3372E-03     89.4242E-03
            1416            2235     88.0540E-03     91.0125E-03
            1416            2236     93.0589E-03     96.0908E-03
            1416            2253     86.3372E-03     89.4242E-03
            1416            2254     91.1340E-03     94.1864E-03
            1417            2236     93.0589E-03     96.0908E-03
            1417            2237     98.3291E-03     101.421E-03
            1417            2254     91.1340E-03     94.1864E-03
            1417            2255     96.1665E-03     99.2161E-03
            1418            2237     98.3291E-03     101.421E-03
            1418            2238     104.064E-03     107.210E-03
            1418            2255     96.1665E-03     99.2161E-03
            1418            2256     101.667E-03     104.686E-03
            1419            2238     104.064E-03     107.210E-03
            1419            2239     110.420E-03     113.598E-03
            1419            2256     101.667E-03     104.686E-03
            1419            2257     107.914E-03     110.949E-03
            1420            2239     110.420E-03     113.598E-03
            1420            2240     118.225E-03     121.053E-03
            1420            2257     107.914E-03     110.949E-03
            1420            2258     115.414E-03     118.431E-03
            1421             379     126.884E-03     129.388E-03
            1421             380     126.097E-03     128.398E-03
            1421            2240     118.225E-03     121.053E-03
            1421            2258     115.414E-03     118.431E-03
            1422             416     38.5373E-03     39.5553E-03
            1422             417     32.8308E-03     33.0346E-03
            1422            2241     37.3304E-03     41.6585E-03
            1422            2259     43.0171E-03     45.5015E-03
            1423            2241     37.3304E-03     41.6585E-03
            1423            2242     41.6897E-03     45.0612E-03
            1423            2259     43.0171E-03     45.5015E-03
            1423            2260     43.6050E-03     45.7954E-03
            1424            2242     41.6897E-03     45.0612E-03
            1424            2243     44.3294E-03     47.2424E-03
            1424            2260     43.6050E-03     45.7954E-03
            1424            2261     44.9839E-03     47.4946E-03
            1425            2243     44.3294E-03     47.2424E-03
            1425            2244     47.5855E-03     50.4638E-03
            1425            2261     44.9839E-03     47.4946E-03
            1425            2262     47.8743E-03     50.6831E-03
            1426            2244     47.5855E-03     50.4638E-03
            1426            2245     51.3061E-03     54.2263E-03
            1426            2262     47.8743E-03     50.6831E-03
            1426            2263     51.1960E-03     54.2493E-03
            1427            2245     51.3061E-03     54.2263E-03
            1427            2246     55.2912E-03     58.2756E-03
            1427            2263     51.1960E-03     54.2493E-03
            1427            2264     54.9743E-03     58.1933E-03
            1428            2246     55.2912E-03     58.2756E-03
            1428            2247     59.4937E-03     62.5299E-03
            1428            2264     54.9743E-03     58.1933E-03
            1428            2265     58.9357E-03     62.2688E-03
            1429            2247     59.4937E-03     62.5299E-03
            1429            2248     63.8057E-03     66.8818E-03
            1429            2265     58.9357E-03     62.2688E-03
            1429            2266     63.0588E-03     66.4562E-03
            1430            2248     63.8057E-03     66.8818E-03
            1430            2249     68.2043E-03     71.3065E-03
            1430            2266     63.0588E-03     66.4562E-03
            1430            2267     67.2520E-03     70.6765E-03
            1431            2249     68.2043E-03     71.3065E-03
            1431            2250     72.6539E-03     75.7648E-03
            1431            2267     67.2520E-03     70.6765E-03
            1431            2268     71.5021E-03     74.9226E-03
            1432            2250     72.6539E-03     75.7648E-03
            1432            2251     77.1486E-03     80.2628E-03
            1432            2268     71.5021E-03     74.9226E-03
            1432            2269     75.7912E-03     79.1721E-03
            1433            2251     77.1486E-03     80.2628E-03
            1433            2252     81.7043E-03     84.8010E-03
            1433            2269     75.7912E-03     79.1721E-03
            1433            2270     80.1223E-03     83.4372E-03
            1434            2252     81.7043E-03     84.8010E-03
            1434            2253     86.3372E-03     89.4242E-03
            1434            2270     80.1223E-03     83.4372E-03
            1434            2271     84.5367E-03     87.7430E-03
            1435            2253     86.3372E-03     89.4242E-03
            1435            2254     91.1340E-03     94.1864E-03
            1435            2271     84.5367E-03     87.7430E-03
            1435            2272     89.0642E-03     92.1392E-03
            1436            2254     91.1340E-03     94.1864E-03
            1436            2255     96.1665E-03     99.2161E-03
            1436            2272     89.0642E-03     92.1392E-03
            1436            2273     93.8470E-03     96.7505E-03
            1437            2255     96.1665E-03     99.2161E-03
            1437            2256     101.667E-03     104.686E-03
            1437            2273     93.8470E-03     96.7505E-03
            1437            2274     98.9677E-03     101.714E-03
            1438            2256     101.667E-03     104.686E-03
            1438            2257     107.914E-03     110.949E-03
            1438            2274     98.9677E-03     101.714E-03
            1438            2275     104.849E-03     107.452E-03
            1439            2257     107.914E-03     110.949E-03
            1439            2258     115.414E-03     118.431E-03
            1439            2275     104.849E-03     107.452E-03
            1439            2276     111.716E-03     114.328E-03
            1440             380     126.097E-03     128.398E-03
            1440             381     121.299E-03     124.172E-03
            1440            2258     115.414E-03     118.431E-03
            1440            2276     111.716E-03     114.328E-03
            1441             415     37.3390E-03     40.3758E-03
            1441             416     38.5373E-03     39.5553E-03
            1441            2259     43.0171E-03     45.5015E-03
            1441            2277     44.8025E-03     43.9867E-03
            1442            2259     43.0171E-03     45.5015E-03
            1442            2260     43.6050E-03     45.7954E-03
            1442            2277     44.8025E-03     43.9867E-03
            1442            2278     45.0410E-03     45.7159E-03
            1443            2260     43.6050E-03     45.7954E-03
            1443            2261     44.9839E-03     47.4946E-03
            1443            2278     45.0410E-03     45.7159E-03
            1443            2279     48.0112E-03     49.4231E-03
            1444            2261     44.9839E-03     47.4946E-03
            1444            2262     47.8743E-03     50.6831E-03
            1444            2279     48.0112E-03     49.4231E-03
            1444            2280     51.9525E-03     53.8321E-03
            1445            2262     47.8743E-03     50.6831E-03
            1445            2263     51.1960E-03     54.2493E-03
            1445            2280     51.9525E-03     53.8321E-03
            1445            2281     56.3359E-03     58.4806E-03
            1446            2263     51.1960E-03     54.2493E-03
            1446            2264     54.9743E-03     58.1933E-03
            1446            2281     56.3359E-03     58.4806E-03
            1446            2282     60.9680E-03     63.2405E-03
            1447            2264     54.9743E-03     58.1933E-03
            1447            2265     58.9357E-03     62.2688E-03
            1447            2282     60.9680E-03     63.2405E-03
            1447            2283     65.7197E-03     68.0543E-03
            1448            2265     58.9357E-03     62.2688E-03
            1448            2266     63.0588E-03     66.4562E-03
            1448            2283     65.7197E-03     68.0543E-03
            1448            2284     70.5332E-03     72.8740E-03
            1449            2266     63.0588E-03     66.4562E-03
            1449            2267     67.2520E-03     70.6765E-03
            1449            2284     70.5332E-03     72.8740E-03
            1449            2285     75.3580E-03     77.6888E-03
            1450            2267     67.2520E-03     70.6765E-03
            1450            2268     71.5021E-03     74.9226E-03
            1450            2285     75.3580E-03     77.6888E-03
            1450            2286     80.1878E-03     82.4697E-03
            1451            2268     71.5021E-03     74.9226E-03
            1451            2269     75.7912E-03     79.1721E-03
            1451            2286     80.1878E-03     82.4697E-03
            1451            2287     84.9866E-03     87.2179E-03
            1452            2269     75.7912E-03     79.1721E-03
            1452            2270     80.1223E-03     83.4372E-03
            1452            2287     84.9866E-03     87.2179E-03
            1452            2288     89.7849E-03     91.9032E-03
            1453            2270     80.1223E-03     83.4372E-03
            1453            2271     84.5367E-03     87.7430E-03
            1453            2288     89.7849E-03     91.9032E-03
            1453            2289     94.5434E-03     96.5451E-03
            1454            2271     84.5367E-03     87.7430E-03
            1454            2272     89.0642E-03     92.1392E-03
            1454            2289     94.5434E-03     96.5451E-03
            1454            2290     99.3453E-03     101.117E-03
            1455            2272     89.0642E-03     92.1392E-03
            1455            2273     93.8470E-03     96.7505E-03
            1455            2290     99.3453E-03     101.117E-03
            1455            2291     104.122E-03     105.663E-03
            1456            2273     93.8470E-03     96.7505E-03
            1456            2274     98.9677E-03     101.714E-03
            1456            2291     104.122E-03     105.663E-03
            1456            2292     109.071E-03     110.204E-03
            1457            2274     98.9677E-03     101.714E-03
            1457            2275     104.849E-03     107.452E-03
            1457            2292     109.071E-03     110.204E-03
            1457            2293     114.053E-03     114.864E-03
            1458            2275     104.849E-03     107.452E-03
            1458            2276     111.716E-03     114.328E-03
            1458            2293     114.053E-03     114.864E-03
            1458            2294     119.599E-03     119.953E-03
            1459             381     121.299E-03     124.172E-03
            1459             382     125.523E-03     125.898E-03
            1459            2276     111.716E-03     114.328E-03
            1459            2294     119.599E-03     119.953E-03
            1460             414     32.5105E-03     35.4162E-03
            1460             415     37.3390E-03     40.3758E-03
            1460            2277     44.8025E-03     43.9867E-03
            1460            2295     39.9049E-03     42.1049E-03
            1461            2277     44.8025E-03     43.9867E-03
            1461            2278     45.0410E-03     45.7159E-03
            1461            2295     39.9049E-03     42.1049E-03
            1461            2296     45.5395E-03     46.3752E-03
            1462            2278     45.0410E-03     45.7159E-03
            1462            2279     48.0112E-03     49.4231E-03
            1462            2296     45.5395E-03     46.3752E-03
            1462            2297     50.5635E-03     51.5446E-03
            1463            2279     48.0112E-03     49.4231E-03
            1463            2280     51.9525E-03     53.8321E-03
            1463            2297     50.5635E-03     51.5446E-03
            1463            2298     56.1333E-03     57.3109E-03
            1464            2280     51.9525E-03     53.8321E-03
            1464            2281     56.3359E-03     58.4806E-03
            1464            2298     56.1333E-03     57.3109E-03
            1464            2299     61.7037E-03     62.9936E-03
            1465            2281     56.3359E-03     58.4806E-03
            1465            2282     60.9680E-03     63.2405E-03
            1465            2299     61.7037E-03     62.9936E-03
            1465            2300     67.3731E-03     68.7036E-03
            1466            2282     60.9680E-03     63.2405E-03
            1466            2283     65.7197E-03     68.0543E-03
            1466            2300     67.3731E-03     68.7036E-03
            1466            2301     73.0166E-03     74.3364E-03
            1467            2283     65.7197E-03     68.0543E-03
            1467            2284     70.5332E-03     72.8740E-03
            1467            2301     73.0166E-03     74.3364E-03
            1467            2302     78.6605E-03     79.9467E-03
            1468            2284     70.5332E-03     72.8740E-03
            1468            2285     75.3580E-03     77.6888E-03
            1468            2302     78.6605E-03     79.9467E-03
            1468            2303     84.2740E-03     85.5187E-03
            1469            2285     75.3580E-03     77.6888E-03
            1469            2286     80.1878E-03     82.4697E-03
            1469            2303     84.2740E-03     85.5187E-03
            1469            2304     89.8609E-03     91.0532E-03
            1470            2286     80.1878E-03     82.4697E-03
            1470            2287     84.9866E-03     87.2179E-03
            1470            2304     89.8609E-03     91.0532E-03
            1470            2305     95.4062E-03     96.5470E-03
            1471            2287     84.9866E-03     87.2179E-03
            1471            2288     89.7849E-03     91.9032E-03
            1471            2305     95.4062E-03     96.5470E-03
            1471            2306     100.914E-03     101.977E-03
            1472            2288     89.7849E-03     91.9032E-03
            1472            2289     94.5434E-03     96.5451E-03
            1472            2306     100.914E-03     101.977E-03
            1472            2307     106.365E-03     107.342E-03
            1473            2289     94.5434E-03     96.5451E-03
            1473            2290     99.3453E-03     101.117E-03
            1473            2307     106.365E-03     107.342E-03
            1473            2308     111.755E-03     112.588E-03
            1474            2290     99.3453E-03     101.117E-03
            1474            2291     104.122E-03     105.663E-03
            1474            2308     111.755E-03     112.588E-03
            1474            2309     117.058E-03     117.716E-03
            1475            2291     104.122E-03     105.663E-03
            1475            2292     109.071E-03     110.204E-03
            1475            2309     117.058E-03     117.716E-03
            1475            2310     122.183E-03     122.607E-03
            1476            2292     109.071E-03     110.204E-03
            1476            2293     114.053E-03     114.864E-03
            1476            2310     122.183E-03     122.607E-03
            1476            2311     127.150E-03     127.258E-03
            1477            2293     114.053E-03     114.864E-03
            1477            2294     119.599E-03     119.953E-03
            1477            2311     127.150E-03     127.258E-03
            1477            2312     131.612E-03     131.514E-03
            1478             382     125.523E-03     125.898E-03
            1478             383     135.825E-03     135.505E-03
            1478            2294     119.599E-03     119.953E-03
            1478            2312     131.612E-03     131.514E-03
            1479             413     31.4416E-03     32.0367E-03
            1479             414     32.5105E-03     35.4162E-03
            1479            2295     39.9049E-03     42.1049E-03
            1479            2313     36.4261E-03     41.3217E-03
            1480            2295     39.9049E-03     42.1049E-03
            1480            2296     45.5395E-03     46.3752E-03
            1480            2313     36.4261E-03     41.3217E-03
            1480            2314     44.2507E-03     47.3028E-03
            1481            2296     45.5395E-03     46.3752E-03
            1481            2297     50.5635E-03     51.5446E-03
            1481            2314     44.2507E-03     47.3028E-03
            1481            2315     50.4899E-03     52.4661E-03
            1482            2297     50.5635E-03     51.5446E-03
            1482            2298     56.1333E-03     57.3109E-03
            1482            2315     50.4899E-03     52.4661E-03
            1482            2316     56.3727E-03     58.1047E-03
            1483            2298     56.1333E-03     57.3109E-03
            1483            2299     61.7037E-03     62.9936E-03
            1483            2316     56.3727E-03     58.1047E-03
            1483            2317     62.1195E-03     63.7992E-03
            1484            2299     61.7037E-03     62.9936E-03
            1484            2300     67.3731E-03     68.7036E-03
            1484            2317     62.1195E-03     63.7992E-03
            1484            2318     67.8140E-03     69.4724E-03
            1485            2300     67.3731E-03     68.7036E-03
            1485            2301     73.0166E-03     74.3364E-03
            1485            2318     67.8140E-03     69.4724E-03
            1485            2319     73.4937E-03     75.1484E-03
            1486            2301     73.0166E-03     74.3364E-03
            1486            2302     78.6605E-03     79.9467E-03
            1486            2319     73.4937E-03     75.1484E-03
            1486            2320     79.1857E-03     80.8314E-03
            1487            2302     78.6605E-03     79.9467E-03
            1487            2303     84.2740E-03     85.5187E-03
            1487            2320     79.1857E-03     80.8314E-03
            1487            2321     84.8882E-03     86.5189E-03
            1488            2303     84.2740E-03     85.5187E-03
            1488            2304     89.8609E-03     91.0532E-03
            1488            2321     84.8882E-03     86.5189E-03
            1488            2322     90.6057E-03     92.2194E-03
            1489            2304     89.8609E-03     91.0532E-03
            1489            2305     95.4062E-03     96.5470E-03
            1489            2322     90.6057E-03     92.2194E-03
            1489            2323     96.3417E-03     97.9300E-03
            1490            2305     95.4062E-03     96.5470E-03
            1490            2306     100.914E-03     101.977E-03
            1490            2323     96.3417E-03     97.9300E-03
            1490            2324     102.091E-03     103.662E-03
            1491            2306     100.914E-03     101.977E-03
            1491            2307     106.365E-03     107.342E-03
            1491            2324     102.091E-03     103.662E-03
            1491            2325     107.867E-03     109.412E-03
            1492            2307     106.365E-03     107.342E-03
            1492            2308     111.755E-03     112.588E-03
            1492            2325     107.867E-03     109.412E-03
            1492            2326     113.649E-03     115.195E-03
            1493            2308     111.755E-03     112.588E-03
            1493            2309     117.058E-03     117.716E-03
            1493            2326     113.649E-03     115.195E-03
            1493            2327     119.441E-03     120.996E-03
            1494            2309     117.058E-03     117.716E-03
            1494            2310     122.183E-03     122.607E-03
            1494            2327     119.441E-03     120.996E-03
            1494            2328     125.185E-03     126.802E-03
            1495            2310     122.183E-03     122.607E-03
            1495            2311     127.150E-03     127.258E-03
            1495            2328     125.185E-03     126.802E-03
            1495            2329     130.740E-03     132.533E-03
            1496            2311     127.150E-03     127.258E-03
            1496            2312     131.612E-03     131.514E-03
            1496            2329     130.740E-03     132.533E-03
            1496            2330     136.023E-03     137.974E-03
            1497             383     135.825E-03     135.505E-03
            1497             384     140.922E-03     142.982E-03
            1497            2312     131.612E-03     131.514E-03
            1497            2330     136.023E-03     137.974E-03
            1498             412     30.7582E-03     30.7249E-03
            1498             413     31.4416E-03     32.0367E-03
            1498            2313     36.4261E-03     41.3217E-03
            1498            2331     36.0463E-03     40.2232E-03
            1499            2313     36.4261E-03     41.3217E-03
            1499            2314     44.2507E-03     47.3028E-03
            1499            2331     36.0463E-03     40.2232E-03
            1499            2332     43.6827E-03     47.6647E-03
            1500            2314     44.2507E-03     47.3028E-03
            1500            2315     50.4899E-03     52.4661E-03
            1500            2332     43.6827E-03     47.6647E-03
            1500            2333     50.5665E-03     53.5359E-03
            1501            2315     50.4899E-03     52.4661E-03
            1501            2316     56.3727E-03     58.1047E-03
            1501            2333     50.5665E-03     53.5359E-03
            1501            2334     56.6356E-03     59.0262E-03
            1502            2316     56.3727E-03     58.1047E-03
            1502            2317     62.1195E-03     63.7992E-03
            1502            2334     56.6356E-03     59.0262E-03
            1502            2335     62.4505E-03     64.6086E-03
            1503            2317     62.1195E-03     63.7992E-03
            1503            2318     67.8140E-03     69.4724E-03
            1503            2335     62.4505E-03     64.6086E-03
            1503            2336     68.1228E-03     70.1843E-03
            1504            2318     67.8140E-03     69.4724E-03
            1504            2319     73.4937E-03     75.1484E-03
            1504            2336     68.1228E-03     70.1843E-03
            1504            2337     73.8237E-03     75.8616E-03
            1505            2319     73.4937E-03     75.1484E-03
            1505            2320     79.1857E-03     80.8314E-03
            1505            2337     73.8237E-03     75.8616E-03
            1505            2338     79.5287E-03     81.5645E-03
            1506            2320     79.1857E-03     80.8314E-03
            1506            2321     84.8882E-03     86.5189E-03
            1506            2338     79.5287E-03     81.5645E-03
            1506            2339     85.2780E-03     87.3190E-03
            1507            2321     84.8882E-03     86.5189E-03
            1507            2322     90.6057E-03     92.2194E-03
            1507            2339     85.2780E-03     87.3190E-03
            1507            2340     91.0628E-03     93.1087E-03
            1508            2322     90.6057E-03     92.2194E-03
            1508            2323     96.3417E-03     97.9300E-03
            1508            2340     91.0628E-03     93.1087E-03
            1508            2341     96.8907E-03     98.9489E-03
            1509            2323     96.3417E-03     97.9300E-03
            1509            2324     102.091E-03     103.662E-03
            1509            2341     96.8907E-03     98.9489E-03
            1509            2342     102.772E-03     104.850E-03
            1510            2324     102.091E-03     103.662E-03
            1510            2325     107.867E-03     109.412E-03
            1510            2342     102.772E-03     104.850E-03
            1510            2343     108.699E-03     110.830E-03
            1511            2325     107.867E-03     109.412E-03
            1511            2326     113.649E-03     115.195E-03
            1511            2343     108.699E-03     110.830E-03
            1511            2344     114.709E-03     116.925E-03
            1512            2326     113.649E-03     115.195E-03
            1512            2327     119.441E-03     120.996E-03
            1512            2344     114.709E-03     116.925E-03
            1512            2345     120.757E-03     123.145E-03
            1513            2327     119.441E-03     120.996E-03
            1513            2328     125.185E-03     126.802E-03
            1513            2345     120.757E-03     123.145E-03
            1513            2346     126.935E-03     129.528E-03
            1514            2328     125.185E-03     126.802E-03
            1514            2329     130.740E-03     132.533E-03
            1514            2346     126.935E-03     129.528E-03
            1514            2347     133.051E-03     135.995E-03
            1515            2329     130.740E-03     132.533E-03
            1515            2330     136.023E-03     137.974E-03
            1515            2347     133.051E-03     135.995E-03
            1515            2348     139.069E-03     142.285E-03
            1516             384     140.922E-03     142.982E-03
            1516             385     144.618E-03     147.763E-03
            1516            2330     136.023E-03     137.974E-03
            1516            2348     139.069E-03     142.285E-03
            1517             411     31.5832E-03     31.6902E-03
            1517             412     30.7582E-03     30.7249E-03
            1517            2331     36.0463E-03     40.2232E-03
            1517            2349     36.8036E-03     41.4048E-03
            1518            2331     36.0463E-03     40.2232E-03
            1518            2332     43.6827E-03     47.6647E-03
            1518            2349     36.8036E-03     41.4048E-03
            1518            2350     44.4210E-03     48.3242E-03
            1519            2332     43.6827E-03     47.6647E-03
            1519            2333     50.5665E-03     53.5359E-03
            1519            2350     44.4210E-03     48.3242E-03
            1519            2351     51.0396E-03     54.5798E-03
            1520            2333     50.5665E-03     53.5359E-03
            1520            2334     56.6356E-03     59.0262E-03
            1520            2351     51.0396E-03     54.5798E-03
            1520            2352     57.0335E-03     59.9571E-03
            1521            2334     56.6356E-03     59.0262E-03
            1521            2335     62.4505E-03     64.6086E-03
            1521            2352     57.0335E-03     59.9571E-03
            1521            2353     62.6447E-03     65.2335E-03
            1522            2335     62.4505E-03     64.6086E-03
            1522            2336     68.1228E-03     70.1843E-03
            1522            2353     62.6447E-03     65.2335E-03
            1522            2354     68.2928E-03     70.7733E-03
            1523            2336     68.1228E-03     70.1843E-03
            1523            2337     73.8237E-03     75.8616E-03
            1523            2354     68.2928E-03     70.7733E-03
            1523            2355     73.9242E-03     76.3686E-03
            1524            2337     73.8237E-03     75.8616E-03
            1524            2338     79.5287E-03     81.5645E-03
            1524            2355     73.9242E-03     76.3686E-03
            1524            2356     79.6182E-03     82.0694E-03
            1525            2338     79.5287E-03     81.5645E-03
            1525            2339     85.2780E-03     87.3190E-03
            1525            2356     79.6182E-03     82.0694E-03
            1525            2357     85.3468E-03     87.8143E-03
            1526            2339     85.2780E-03     87.3190E-03
            1526            2340     91.0628E-03     93.1087E-03
            1526            2357     85.3468E-03     87.8143E-03
            1526            2358     91.1250E-03     93.6157E-03
            1527            2340     91.0628E-03     93.1087E-03
            1527            2341     96.8907E-03     98.9489E-03
            1527            2358     91.1250E-03     93.6157E-03
            1527            2359     96.9506E-03     99.4699E-03
            1528            2341     96.8907E-03     98.9489E-03
            1528            2342     102.772E-03     104.850E-03
            1528            2359     96.9506E-03     99.4699E-03
            1528            2360     102.825E-03     105.393E-03
            1529            2342     102.772E-03     104.850E-03
            1529            2343     108.699E-03     110.830E-03
            1529            2360     102.825E-03     105.393E-03
            1529            2361     108.770E-03     111.416E-03
            1530            2343     108.699E-03     110.830E-03
            1530            2344     114.709E-03     116.925E-03
            1530            2361     108.770E-03     111.416E-03
            1530            2362     114.778E-03     117.564E-03
            1531            2344     114.709E-03     116.925E-03
            1531            2345     120.757E-03     123.145E-03
            1531            2362     114.778E-03     117.564E-03
            1531            2363     120.939E-03     123.918E-03
            1532            2345     120.757E-03     123.145E-03
            1532            2346     126.935E-03     129.528E-03
            1532            2363     120.939E-03     123.918E-03
            1532            2364     127.184E-03     130.490E-03
            1533            2346     126.935E-03     129.528E-03
            1533            2347     133.051E-03     135.995E-03
            1533            2364     127.184E-03     130.490E-03
            1533            2365     133.862E-03     137.360E-03
            1534            2347     133.051E-03     135.995E-03
            1534            2348     139.069E-03     142.285E-03
            1534            2365     133.862E-03     137.360E-03
            1534            2366     140.573E-03     144.352E-03
            1535             385     144.618E-03     147.763E-03
            1535             386     146.914E-03     150.781E-03
            1535            2348     139.069E-03     142.285E-03
            1535            2366     140.573E-03     144.352E-03
            1536             410     33.4399E-03     33.4383E-03
            1536             411     31.5832E-03     31.6902E-03
            1536            2349     36.8036E-03     41.4048E-03
            1536            2367     39.0018E-03     43.5126E-03
            1537            2349     36.8036E-03     41.4048E-03
            1537            2350     44.4210E-03     48.3242E-03
            1537            2367     39.0018E-03     43.5126E-03
            1537            2368     46.1230E-03     50.4718E-03
            1538            2350     44.4210E-03     48.3242E-03
            1538            2351     51.0396E-03     54.5798E-03
            1538            2368     46.1230E-03     50.4718E-03
            1538            2369     52.1057E-03     55.6919E-03
            1539            2351     51.0396E-03     54.5798E-03
            1539            2352     57.0335E-03     59.9571E-03
            1539            2369     52.1057E-03     55.6919E-03
            1539            2370     57.3703E-03     60.5353E-03
            1540            2352     57.0335E-03     59.9571E-03
            1540            2353     62.6447E-03     65.2335E-03
            1540            2370     57.3703E-03     60.5353E-03
            1540            2371     62.8027E-03     65.7511E-03
            1541            2353     62.6447E-03     65.2335E-03
            1541            2354     68.2928E-03     70.7733E-03
            1541            2371     62.8027E-03     65.7511E-03
            1541            2372     68.2655E-03     71.1325E-03
            1542            2354     68.2928E-03     70.7733E-03
            1542            2355     73.9242E-03     76.3686E-03
            1542            2372     68.2655E-03     71.1325E-03
            1542            2373     73.8238E-03     76.6868E-03
            1543            2355     73.9242E-03     76.3686E-03
            1543            2356     79.6182E-03     82.0694E-03
            1543            2373     73.8238E-03     76.6868E-03
            1543            2374     79.4328E-03     82.3137E-03
            1544            2356     79.6182E-03     82.0694E-03
            1544            2357     85.3468E-03     87.8143E-03
            1544            2374     79.4328E-03     82.3137E-03
            1544            2375     85.0908E-03     88.0008E-03
            1545            2357     85.3468E-03     87.8143E-03
            1545            2358     91.1250E-03     93.6157E-03
            1545            2375     85.0908E-03     88.0008E-03
            1545            2376     90.7854E-03     93.7236E-03
            1546            2358     91.1250E-03     93.6157E-03
            1546            2359     96.9506E-03     99.4699E-03
            1546            2376     90.7854E-03     93.7236E-03
            1546            2377     96.5125E-03     99.4843E-03
            1547            2359     96.9506E-03     99.4699E-03
            1547            2360     102.825E-03     105.393E-03
            1547            2377     96.5125E-03     99.4843E-03
            1547            2378     102.276E-03     105.291E-03
            1548            2360     102.825E-03     105.393E-03
            1548            2361     108.770E-03     111.416E-03
            1548            2378     102.276E-03     105.291E-03
            1548            2379     108.079E-03     111.163E-03
            1549            2361     108.770E-03     111.416E-03
            1549            2362     114.778E-03     117.564E-03
            1549            2379     108.079E-03     111.163E-03
            1549            2380     113.956E-03     117.151E-03
            1550            2362     114.778E-03     117.564E-03
            1550            2363     120.939E-03     123.918E-03
            1550            2380     113.956E-03     117.151E-03
            1550            2381     119.927E-03     123.298E-03
            1551            2363     120.939E-03     123.918E-03
            1551            2364     127.184E-03     130.490E-03
            1551            2381     119.927E-03     123.298E-03
            1551            2382     126.169E-03     129.748E-03
            1552            2364     127.184E-03     130.490E-03
            1552            2365     133.862E-03     137.360E-03
            1552            2382     126.169E-03     129.748E-03
            1552            2383     132.690E-03     136.565E-03
            1553            2365     133.862E-03     137.360E-03
            1553            2366     140.573E-03     144.352E-03
            1553            2383     132.690E-03     136.565E-03
            1553            2384     140.284E-03     144.055E-03
            1554             386     146.914E-03     150.781E-03
            1554             387     148.369E-03     151.767E-03
            1554            2366     140.573E-03     144.352E-03
            1554            2384     140.284E-03     144.055E-03
            1555             409     37.1248E-03     37.2955E-03
            1555             410     33.4399E-03     33.4383E-03
            1555            2367     39.0018E-03     43.5126E-03
            1555            2385     42.7888E-03     48.0011E-03
            1556            2367     39.0018E-03     43.5126E-03
            1556            2368     46.1230E-03     50.4718E-03
            1556            2385     42.7888E-03     48.0011E-03
            1556            2386     48.9325E-03     52.9234E-03
            1557            2368     46.1230E-03     50.4718E-03
            1557            2369     52.1057E-03     55.6919E-03
            1557            2386     48.9325E-03     52.9234E-03
            1557            2387     53.0385E-03     56.4153E-03
            1558            2369     52.1057E-03     55.6919E-03
            1558            2370     57.3703E-03     60.5353E-03
            1558            2387     53.0385E-03     56.4153E-03
            1558            2388     57.7594E-03     60.9907E-03
            1559            2370     57.3703E-03     60.5353E-03
            1559            2371     62.8027E-03     65.7511E-03
            1559            2388     57.7594E-03     60.9907E-03
            1559            2389     62.8471E-03     66.0771E-03
            1560            2371     62.8027E-03     65.7511E-03
            1560            2372     68.2655E-03     71.1325E-03
            1560            2389     62.8471E-03     66.0771E-03
            1560            2390     68.1290E-03     71.3771E-03
            1561            2372     68.2655E-03     71.1325E-03
            1561            2373     73.8238E-03     76.6868E-03
            1561            2390     68.1290E-03     71.3771E-03
            1561            2391     73.5562E-03     76.8421E-03
            1562            2373     73.8238E-03     76.6868E-03
            1562            2374     79.4328E-03     82.3137E-03
            1562            2391     73.5562E-03     76.8421E-03
            1562            2392     79.0432E-03     82.3706E-03
            1563            2374     79.4328E-03     82.3137E-03
            1563            2375     85.0908E-03     88.0008E-03
            1563            2392     79.0432E-03     82.3706E-03
            1563            2393     84.5752E-03     87.9369E-03
            1564            2375     85.0908E-03     88.0008E-03
            1564            2376     90.7854E-03     93.7236E-03
            1564            2393     84.5752E-03     87.9369E-03
            1564            2394     90.1196E-03     93.5131E-03
            1565            2376     90.7854E-03     93.7236E-03
            1565            2377     96.5125E-03     99.4843E-03
            1565            2394     90.1196E-03     93.5131E-03
            1565            2395     95.6719E-03     99.0894E-03
            1566            2377     96.5125E-03     99.4843E-03
            1566            2378     102.276E-03     105.291E-03
            1566            2395     95.6719E-03     99.0894E-03
            1566            2396     101.225E-03     104.665E-03
            1567            2378     102.276E-03     105.291E-03
            1567            2379     108.079E-03     111.163E-03
            1567            2396     101.225E-03     104.665E-03
            1567            2397     106.783E-03     110.248E-03
            1568            2379     108.079E-03     111.163E-03
            1568            2380     113.956E-03     117.151E-03
            1568            2397     106.783E-03     110.248E-03
            1568            2398     112.375E-03     115.869E-03
            1569            2380     113.956E-03     117.151E-03
            1569            2381     119.927E-03     123.298E-03
            1569            2398     112.375E-03     115.869E-03
            1569            2399     118.039E-03     121.589E-03
            1570            2381     119.927E-03     123.298E-03
            1570            2382     126.169E-03     129.748E-03
            1570            2399     118.039E-03     121.589E-03
            1570            2400     123.912E-03     127.528E-03
            1571            2382     126.169E-03     129.748E-03
            1571            2383     132.690E-03     136.565E-03
            1571            2400     123.912E-03     127.528E-03
            1571            2401     130.200E-03     133.943E-03
            1572            2383     132.690E-03     136.565E-03
            1572            2384     140.284E-03     144.055E-03
            1572            2401     130.200E-03     133.943E-03
            1572            2402     137.353E-03     141.136E-03
            1573             387     148.369E-03     151.767E-03
            1573             388     147.221E-03     150.322E-03
            1573            2384     140.284E-03     144.055E-03
            1573            2402     137.353E-03     141.136E-03
            1574             408     43.5871E-03     44.7027E-03
            1574             409     37.1248E-03     37.2955E-03
            1574            2385     42.7888E-03     48.0011E-03
            1574            2403     49.2492E-03     52.4388E-03
            1575            2385     42.7888E-03     48.0011E-03
            1575            2386     48.9325E-03     52.9234E-03
            1575            2403     49.2492E-03     52.4388E-03
            1575            2404     51.0727E-03     53.8234E-03
            1576            2386     48.9325E-03     52.9234E-03
            1576            2387     53.0385E-03     56.4153E-03
            1576            2404     51.0727E-03     53.8234E-03
            1576            2405     53.7657E-03     56.8519E-03
            1577            2387     53.0385E-03     56.4153E-03
            1577            2388     57.7594E-03     60.9907E-03
            1577            2405     53.7657E-03     56.8519E-03
            1577            2406     58.1007E-03     61.4489E-03
            1578            2388     57.7594E-03     60.9907E-03
            1578            2389     62.8471E-03     66.0771E-03
            1578            2406     58.1007E-03     61.4489E-03
            1578            2407     62.8262E-03     66.3619E-03
            1579            2389     62.8471E-03     66.0771E-03
            1579            2390     68.1290E-03     71.3771E-03
            1579            2407     62.8262E-03     66.3619E-03
            1579            2408     67.9650E-03     71.6220E-03
            1580            2390     68.1290E-03     71.3771E-03
            1580            2391     73.5562E-03     76.8421E-03
            1580            2408     67.9650E-03     71.6220E-03
            1580            2409     73.2157E-03     76.9477E-03
            1581            2391     73.5562E-03     76.8421E-03
            1581            2392     79.0432E-03     82.3706E-03
            1581            2409     73.2157E-03     76.9477E-03
            1581            2410     78.5670E-03     82.3497E-03
            1582            2392     79.0432E-03     82.3706E-03
            1582            2393     84.5752E-03     87.9369E-03
            1582            2410     78.5670E-03     82.3497E-03
            1582            2411     83.9226E-03     87.7461E-03
            1583            2393     84.5752E-03     87.9369E-03
            1583            2394     90.1196E-03     93.5131E-03
            1583            2411     83.9226E-03     87.7461E-03
            1583            2412     89.2733E-03     93.1253E-03
            1584            2394     90.1196E-03     93.5131E-03
            1584            2395     95.6719E-03     99.0894E-03
            1584            2412     89.2733E-03     93.1253E-03
            1584            2413     94.5871E-03     98.4612E-03
            1585            2395     95.6719E-03     99.0894E-03
            1585            2396     101.225E-03     104.665E-03
            1585            2413     94.5871E-03     98.4612E-03
            1585            2414     99.8598E-03     103.733E-03
            1586            2396     101.225E-03     104.665E-03
            1586            2397     106.783E-03     110.248E-03
            1586            2414     99.8598E-03     103.733E-03
            1586            2415     105.097E-03     108.947E-03
            1587            2397     106.783E-03     110.248E-03
            1587            2398     112.375E-03     115.869E-03
            1587            2415     105.097E-03     108.947E-03
            1587            2416     110.306E-03     114.085E-03
            1588            2398     112.375E-03     115.869E-03
            1588            2399     118.039E-03     121.589E-03
            1588            2416     110.306E-03     114.085E-03
            1588            2417     115.576E-03     119.228E-03
            1589            2399     118.039E-03     121.589E-03
            1589            2400     123.912E-03     127.528E-03
            1589            2417     115.576E-03     119.228E-03
            1589            2418     120.933E-03     124.417E-03
            1590            2400     123.912E-03     127.528E-03
            1590            2401     130.200E-03     133.943E-03
            1590            2418     120.933E-03     124.417E-03
            1590            2419     126.768E-03     130.005E-03
            1591            2401     130.200E-03     133.943E-03
            1591            2402     137.353E-03     141.136E-03
            1591            2419     126.768E-03     130.005E-03
            1591            2420     133.179E-03     136.306E-03
            1592             388     147.221E-03     150.322E-03
            1592             389     141.928E-03     145.086E-03
            1592            2402     137.353E-03     141.136E-03
            1592            2420     133.179E-03     136.306E-03
            1593              22     69.7670E-03     83.4965E-03
            1593             407     38.8501E-03     67.9937E-03
            1593             408     43.5871E-03     44.7027E-03
            1593            2403     49.2492E-03     52.4388E-03
            1594             406     35.4029E-03     63.5940E-03
            1594             407     38.8501E-03     67.9937E-03
            1594            2403     49.2492E-03     52.4388E-03
            1594            2404     51.0727E-03     53.8234E-03
            1595             405     36.2867E-03     68.7906E-03
            1595             406     35.4029E-03     63.5940E-03
            1595            2404     51.0727E-03     53.8234E-03
            1595            2405     53.7657E-03     56.8519E-03
            1596             404     41.6964E-03     72.9969E-03
            1596             405     36.2867E-03     68.7906E-03
            1596            2405     53.7657E-03     56.8519E-03
            1596            2406     58.1007E-03     61.4489E-03
            1597             403     47.7905E-03     77.8658E-03
            1597             404     41.6964E-03     72.9969E-03
            1597            2406     58.1007E-03     61.4489E-03
            1597            2407     62.8262E-03     66.3619E-03
            1598             402     54.2431E-03     82.7489E-03
            1598             403     47.7905E-03     77.8658E-03
            1598            2407     62.8262E-03     66.3619E-03
            1598            2408     67.9650E-03     71.6220E-03
            1599             401     60.8844E-03     87.7108E-03
            1599             402     54.2431E-03     82.7489E-03
            1599            2408     67.9650E-03     71.6220E-03
            1599            2409     73.2157E-03     76.9477E-03
            1600             400     67.6100E-03     92.6844E-03
            1600             401     60.8844E-03     87.7108E-03
            1600            2409     73.2157E-03     76.9477E-03
            1600            2410     78.5670E-03     82.3497E-03
            1601             399     74.3673E-03     97.6609E-03
            1601             400     67.6100E-03     92.6844E-03
            1601            2410     78.5670E-03     82.3497E-03
            1601            2411     83.9226E-03     87.7461E-03
            1602             398     81.1395E-03     102.611E-03
            1602             399     74.3673E-03     97.6609E-03
            1602            2411     83.9226E-03     87.7461E-03
            1602            2412     89.2733E-03     93.1253E-03
            1603             397     87.8805E-03     107.543E-03
            1603             398     81.1395E-03     102.611E-03
            1603            2412     89.2733E-03     93.1253E-03
            1603            2413     94.5871E-03     98.4612E-03
            1604             396     94.6307E-03     112.407E-03
            1604             397     87.8805E-03     107.543E-03
            1604            2413     94.5871E-03     98.4612E-03
            1604            2414     99.8598E-03     103.733E-03
            1605             395     101.305E-03     117.259E-03
            1605             396     94.6307E-03     112.407E-03
            1605            2414     99.8598E-03     103.733E-03
            1605            2415     105.097E-03     108.947E-03
            1606             394     108.049E-03     121.992E-03
            1606             395     101.305E-03     117.259E-03
            1606            2415     105.097E-03     108.947E-03
            1606            2416     110.306E-03     114.085E-03
            1607             393     114.678E-03     126.780E-03
            1607             394     108.049E-03     121.992E-03
            1607            2416     110.306E-03     114.085E-03
            1607            2417     115.576E-03     119.228E-03
            1608             392     121.558E-03     131.435E-03
            1608             393     114.678E-03     126.780E-03
            1608            2417     115.576E-03     119.228E-03
            1608            2418     120.933E-03     124.417E-03
            1609             391     128.366E-03     136.384E-03
            1609             392     121.558E-03     131.435E-03
            1609            2418     120.933E-03     124.417E-03
            1609            2419     126.768E-03     130.005E-03
            1610             390     135.748E-03     141.483E-03
            1610             391     128.366E-03     136.384E-03
            1610            2419     126.768E-03     130.005E-03
            1610            2420     133.179E-03     136.306E-03
            1611              21     143.854E-03     147.826E-03
            1611             389     141.928E-03     145.086E-03
            1611             390     135.748E-03     141.483E-03
            1611            2420     133.179E-03     136.306E-03
            1612              17     5.93188E-03     4.69016E-03
            1612             303     630.255E-06     675.442E-06
            1612             455     4.66254E-03     5.27614E-03
            1612            2421     540.663E-06     620.861E-06
            1613              23     5.40875E-03     8.18529E-03
            1613             455     4.66254E-03     5.27614E-03
            1613             456     548.327E-06     644.018E-06
            1613            2421     540.663E-06     620.861E-06
            1614             303     630.255E-06     675.442E-06
            1614             304     669.845E-06     635.795E-06
            1614            2421     540.663E-06     620.861E-06
            1614            2422     465.304E-06     485.662E-06
            1615             456     548.327E-06     644.018E-06
            1615             457     355.500E-06     413.853E-06
            1615            2421     540.663E-06     620.861E-06
            1615            2422     465.304E-06     485.662E-06
            1616              18     662.599E-06     592.163E-06
            1616             304     669.845E-06     635.795E-06
            1616             458     433.141E-06     460.902E-06
            1616            2422     465.304E-06     485.662E-06
            1617              24     273.311E-06     410.995E-06
            1617             457     355.500E-06     413.853E-06
            1617             458     433.141E-06     460.902E-06
            1617            2422     465.304E-06     485.662E-06
            1618              20     5.95434E-03     5.45877E-03
            1618             343     11.1154E-03     10.3760E-03
            1618             459     7.65403E-03     8.79290E-03
            1618            2423     15.1724E-03     15.9828E-03
            1619               3     9.09588E-03     11.4114E-03
            1619             155     16.9598E-03     18.1435E-03
            1619             459     7.65403E-03     8.79290E-03
            1619            2423     15.1724E-03     15.9828E-03
            1620             343     11.1154E-03     10.3760E-03
            1620             344     12.0422E-03     11.7742E-03
            1620            2423     15.1724E-03     15.9828E-03
            1620            2424     17.1267E-03     16.5200E-03
            1621             154     15.9666E-03     13.8965E-03
            1621             155     16.9598E-03     18.1435E-03
            1621            2423     15.1724E-03     15.9828E-03
            1621            2424     17.1267E-03     16.5200E-03
            1622             344     12.0422E-03     11.7742E-03
            1622             345     14.7542E-03     14.5065E-03
            1622            2424     17.1267E-03     16.5200E-03
            1622            2425     20.1624E-03     19.6407E-03
            1623             153     16.9625E-03     16.4375E-03
            1623             154     15.9666E-03     13.8965E-03
            1623            2424     17.1267E-03     16.5200E-03
            1623            2425     20.1624E-03     19.6407E-03
            1624             345     14.7542E-03     14.5065E-03
            1624             346     17.5312E-03     17.5883E-03
            1624            2425     20.1624E-03     19.6407E-03
            1624            2426     23.4139E-03     23.1296E-03
            1625             152     21.9133E-03     21.4147E-03
            1625             153     16.9625E-03     16.4375E-03
            1625            2425     20.1624E-03     19.6407E-03
            1625            2426     23.4139E-03     23.1296E-03
            1626             346     17.5312E-03     17.5883E-03
            1626             347     20.1779E-03     20.4215E-03
            1626            2426     23.4139E-03     23.1296E-03
            1626            2427     26.8035E-03     26.9766E-03
            1627             151     27.0962E-03     28.0864E-03
            1627             152     21.9133E-03     21.4147E-03
            1627            2426     23.4139E-03     23.1296E-03
            1627            2427     26.8035E-03     26.9766E-03
            1628             347     20.1779E-03     20.4215E-03
            1628             348     21.5828E-03     22.6211E-03
            1628            2427     26.8035E-03     26.9766E-03
            1628            2428     30.5963E-03     30.4916E-03
            1629             150     35.0634E-03     33.7525E-03
            1629             151     27.0962E-03     28.0864E-03
            1629            2427     26.8035E-03     26.9766E-03
            1629            2428     30.5963E-03     30.4916E-03
            1630             348     21.5828E-03     22.6211E-03
            1630             349     21.1403E-03     24.0706E-03
            1630            2428     30.5963E-03     30.4916E-03
            1630            2429     32.1903E-03     34.7216E-03
            1631             149     41.4756E-03     42.4390E-03
            1631             150     35.0634E-03     33.7525E-03
            1631            2428     30.5963E-03     30.4916E-03
            1631            2429     32.1903E-03     34.7216E-03
            1632             349     21.1403E-03     24.0706E-03
            1632             350     29.7566E-03     30.3253E-03
            1632            2429     32.1903E-03     34.7216E-03
            1632            2430     33.8723E-03     35.5300E-03
            1633             148     36.7254E-03     39.7224E-03
            1633             149     41.4756E-03     42.4390E-03
            1633            2429     32.1903E-03     34.7216E-03
            1633            2430     33.8723E-03     35.5300E-03
            1634             350     29.7566E-03     30.3253E-03
            1634             351     39.2887E-03     37.7399E-03
            1634            2430     33.8723E-03     35.5300E-03
            1634            2431     37.7021E-03     36.3699E-03
            1635             147     34.0974E-03     31.9134E-03
            1635             148     36.7254E-03     39.7224E-03
            1635            2430     33.8723E-03     35.5300E-03
            1635            2431     37.7021E-03     36.3699E-03
            1636             351     39.2887E-03     37.7399E-03
            1636             352     41.2068E-03     41.2907E-03
            1636            2431     37.7021E-03     36.3699E-03
            1636            2432     41.8893E-03     41.8039E-03
            1637             146     38.5809E-03     37.3524E-03
            1637             147     34.0974E-03     31.9134E-03
            1637            2431     37.7021E-03     36.3699E-03
            1637            2432     41.8893E-03     41.8039E-03
            1638             352     41.2068E-03     41.2907E-03
            1638             353     44.4727E-03     45.0698E-03
            1638            2432     41.8893E-03     41.8039E-03
            1638            2433     46.6738E-03     46.8099E-03
            1639             145     43.3774E-03     43.0347E-03
            1639             146     38.5809E-03     37.3524E-03
            1639            2432     41.8893E-03     41.8039E-03
            1639            2433     46.6738E-03     46.8099E-03
            1640             353     44.4727E-03     45.0698E-03
            1640             354     47.8970E-03     48.6928E-03
            1640            2433     46.6738E-03     46.8099E-03
            1640            2434     50.9984E-03     51.3742E-03
            1641             144     48.9191E-03     48.6031E-03
            1641             145     43.3774E-03     43.0347E-03
            1641            2433     46.6738E-03     46.8099E-03
            1641            2434     50.9984E-03     51.3742E-03
            1642             354     47.8970E-03     48.6928E-03
            1642             355     51.1075E-03     51.9898E-03
            1642            2434     50.9984E-03     51.3742E-03
            1642            2435     55.0663E-03     55.7240E-03
            1643             143     54.1808E-03     54.5826E-03
            1643             144     48.9191E-03     48.6031E-03
            1643            2434     50.9984E-03     51.3742E-03
            1643            2435     55.0663E-03     55.7240E-03
            1644             355     51.1075E-03     51.9898E-03
            1644             356     53.8895E-03     55.0688E-03
            1644            2435     55.0663E-03     55.7240E-03
            1644            2436     59.1761E-03     59.8863E-03
            1645             142     60.2638E-03     59.6848E-03
            1645             143     54.1808E-03     54.5826E-03
            1645            2435     55.0663E-03     55.7240E-03
            1645            2436     59.1761E-03     59.8863E-03
            1646             356     53.8895E-03     55.0688E-03
            1646             357     56.3859E-03     57.4975E-03
            1646            2436     59.1761E-03     59.8863E-03
            1646            2437     62.9382E-03     64.2054E-03
            1647             141     64.9228E-03     67.1072E-03
            1647             142     60.2638E-03     59.6848E-03
            1647            2436     59.1761E-03     59.8863E-03
            1647            2437     62.9382E-03     64.2054E-03
            1648             357     56.3859E-03     57.4975E-03
            1648             358     57.2737E-03     58.7369E-03
            1648            2437     62.9382E-03     64.2054E-03
            1648            2438     66.9182E-03     67.3416E-03
            1649             140     73.6833E-03     71.7765E-03
            1649             141     64.9228E-03     67.1072E-03
            1649            2437     62.9382E-03     64.2054E-03
            1649            2438     66.9182E-03     67.3416E-03
            1650             358     57.2737E-03     58.7369E-03
            1650             359     55.3504E-03     58.2214E-03
            1650            2438     66.9182E-03     67.3416E-03
            1650            2439     67.8557E-03     70.2884E-03
            1651             139     79.9220E-03     80.0414E-03
            1651             140     73.6833E-03     71.7765E-03
            1651            2438     66.9182E-03     67.3416E-03
            1651            2439     67.8557E-03     70.2884E-03
            1652             359     55.3504E-03     58.2214E-03
            1652             360     62.6443E-03     63.0142E-03
            1652            2439     67.8557E-03     70.2884E-03
            1652            2440     68.2119E-03     69.7937E-03
            1653             138     72.9388E-03     78.0319E-03
            1653             139     79.9220E-03     80.0414E-03
            1653            2439     67.8557E-03     70.2884E-03
            1653            2440     68.2119E-03     69.7937E-03
            1654             360     62.6443E-03     63.0142E-03
            1654             361     72.7642E-03     71.4246E-03
            1654            2440     68.2119E-03     69.7937E-03
            1654            2441     72.2901E-03     70.7020E-03
            1655             137     71.4896E-03     67.9810E-03
            1655             138     72.9388E-03     78.0319E-03
            1655            2440     68.2119E-03     69.7937E-03
            1655            2441     72.2901E-03     70.7020E-03
            1656             361     72.7642E-03     71.4246E-03
            1656             362     75.9178E-03     76.4622E-03
            1656            2441     72.2901E-03     70.7020E-03
            1656            2442     77.0383E-03     77.3472E-03
            1657             136     75.4183E-03     73.4914E-03
            1657             137     71.4896E-03     67.9810E-03
            1657            2441     72.2901E-03     70.7020E-03
            1657            2442     77.0383E-03     77.3472E-03
            1658             362     75.9178E-03     76.4622E-03
            1658             363     79.5301E-03     80.8545E-03
            1658            2442     77.0383E-03     77.3472E-03
            1658            2443     81.7700E-03     82.5884E-03
            1659             135     78.8991E-03     79.2623E-03
            1659             136     75.4183E-03     73.4914E-03
            1659            2442     77.0383E-03     77.3472E-03
            1659            2443     81.7700E-03     82.5884E-03
            1660             363     79.5301E-03     80.8545E-03
            1660             364     83.1152E-03     84.6036E-03
            1660            2443     81.7700E-03     82.5884E-03
            1660            2444     86.0329E-03     86.9712E-03
            1661             134     84.2460E-03     83.7853E-03
            1661             135     78.8991E-03     79.2623E-03
            1661            2443     81.7700E-03     82.5884E-03
            1661            2444     86.0329E-03     86.9712E-03
            1662             364     83.1152E-03     84.6036E-03
            1662             365     86.2635E-03     87.9109E-03
            1662            2444     86.0329E-03     86.9712E-03
            1662            2445     90.0508E-03     91.1824E-03
            1663             133     89.1311E-03     89.2421E-03
            1663             134     84.2460E-03     83.7853E-03
            1663            2444     86.0329E-03     86.9712E-03
            1663            2445     90.0508E-03     91.1824E-03
            1664             365     86.2635E-03     87.9109E-03
            1664             366     89.1636E-03     90.8574E-03
            1664            2445     90.0508E-03     91.1824E-03
            1664            2446     93.8015E-03     95.1934E-03
            1665             132     93.9164E-03     94.6686E-03
            1665             133     89.1311E-03     89.2421E-03
            1665            2445     90.0508E-03     91.1824E-03
            1665            2446     93.8015E-03     95.1934E-03
            1666             366     89.1636E-03     90.8574E-03
            1666             367     91.5020E-03     93.5088E-03
            1666            2446     93.8015E-03     95.1934E-03
            1666            2447     97.5786E-03     98.9517E-03
            1667             131     99.7347E-03     98.9932E-03
            1667             132     93.9164E-03     94.6686E-03
            1667            2446     93.8015E-03     95.1934E-03
            1667            2447     97.5786E-03     98.9517E-03
            1668             367     91.5020E-03     93.5088E-03
            1668             368     93.4416E-03     95.2740E-03
            1668            2447     97.5786E-03     98.9517E-03
            1668            2448     100.874E-03     102.904E-03
            1669             130     103.489E-03     106.525E-03
            1669             131     99.7347E-03     98.9932E-03
            1669            2447     97.5786E-03     98.9517E-03
            1669            2448     100.874E-03     102.904E-03
            1670             368     93.4416E-03     95.2740E-03
            1670             369     93.4808E-03     95.3646E-03
            1670            2448     100.874E-03     102.904E-03
            1670            2449     104.335E-03     105.124E-03
            1671             129     112.744E-03     110.052E-03
            1671             130     103.489E-03     106.525E-03
            1671            2448     100.874E-03     102.904E-03
            1671            2449     104.335E-03     105.124E-03
            1672             369     93.4808E-03     95.3646E-03
            1672             370     90.0215E-03     92.8914E-03
            1672            2449     104.335E-03     105.124E-03
            1672            2450     104.142E-03     106.466E-03
            1673             128     118.716E-03     117.847E-03
            1673             129     112.744E-03     110.052E-03
            1673            2449     104.335E-03     105.124E-03
            1673            2450     104.142E-03     106.466E-03
            1674             370     90.0215E-03     92.8914E-03
            1674             371     95.8135E-03     96.0964E-03
            1674            2450     104.142E-03     106.466E-03
            1674            2451     103.375E-03     105.275E-03
            1675             127     110.265E-03     117.831E-03
            1675             128     118.716E-03     117.847E-03
            1675            2450     104.142E-03     106.466E-03
            1675            2451     103.375E-03     105.275E-03
            1676             371     95.8135E-03     96.0964E-03
            1676             372     106.217E-03     105.223E-03
            1676            2451     103.375E-03     105.275E-03
            1676            2452     108.072E-03     106.594E-03
            1677             126     110.562E-03     106.173E-03
            1677             127     110.265E-03     117.831E-03
            1677            2451     103.375E-03     105.275E-03
            1677            2452     108.072E-03     106.594E-03
            1678             372     106.217E-03     105.223E-03
            1678             373     110.598E-03     111.664E-03
            1678            2452     108.072E-03     106.594E-03
            1678            2453     113.308E-03     113.967E-03
            1679             125     113.629E-03     110.871E-03
            1679             126     110.562E-03     106.173E-03
            1679            2452     108.072E-03     106.594E-03
            1679            2453     113.308E-03     113.967E-03
            1680             373     110.598E-03     111.664E-03
            1680             374     114.535E-03     116.580E-03
            1680            2453     113.308E-03     113.967E-03
            1680            2454     117.775E-03     119.321E-03
            1681             124     115.421E-03     116.650E-03
            1681             125     113.629E-03     110.871E-03
            1681            2453     113.308E-03     113.967E-03
            1681            2454     117.775E-03     119.321E-03
            1682             374     114.535E-03     116.580E-03
            1682             375     118.064E-03     120.348E-03
            1682            2454     117.775E-03     119.321E-03
            1682            2455     121.806E-03     123.318E-03
            1683             123     120.673E-03     119.986E-03
            1683             124     115.421E-03     116.650E-03
            1683            2454     117.775E-03     119.321E-03
            1683            2455     121.806E-03     123.318E-03
            1684             375     118.064E-03     120.348E-03
            1684             376     121.034E-03     123.434E-03
            1684            2455     121.806E-03     123.318E-03
            1684            2456     125.474E-03     127.216E-03
            1685             122     124.851E-03     125.204E-03
            1685             123     120.673E-03     119.986E-03
            1685            2455     121.806E-03     123.318E-03
            1685            2456     125.474E-03     127.216E-03
            1686             376     121.034E-03     123.434E-03
            1686             377     123.618E-03     126.061E-03
            1686            2456     125.474E-03     127.216E-03
            1686            2457     128.857E-03     130.838E-03
            1687             121     129.160E-03     130.100E-03
            1687             122     124.851E-03     125.204E-03
            1687            2456     125.474E-03     127.216E-03
            1687            2457     128.857E-03     130.838E-03
            1688             377     123.618E-03     126.061E-03
            1688             378     125.522E-03     128.281E-03
            1688            2457     128.857E-03     130.838E-03
            1688            2458     132.217E-03     134.136E-03
            1689             120     134.618E-03     133.708E-03
            1689             121     129.160E-03     130.100E-03
            1689            2457     128.857E-03     130.838E-03
            1689            2458     132.217E-03     134.136E-03
            1690             378     125.522E-03     128.281E-03
            1690             379     126.884E-03     129.388E-03
            1690            2458     132.217E-03     134.136E-03
            1690            2459     134.971E-03     137.636E-03
            1691             119     137.551E-03     141.239E-03
            1691             120     134.618E-03     133.708E-03
            1691            2458     132.217E-03     134.136E-03
            1691            2459     134.971E-03     137.636E-03
            1692             379     126.884E-03     129.388E-03
            1692             380     126.097E-03     128.398E-03
            1692            2459     134.971E-03     137.636E-03
            1692            2460     137.827E-03     138.927E-03
            1693             118     147.182E-03     143.742E-03
            1693             119     137.551E-03     141.239E-03
            1693            2459     134.971E-03     137.636E-03
            1693            2460     137.827E-03     138.927E-03
            1694             380     126.097E-03     128.398E-03
            1694             381     121.299E-03     124.172E-03
            1694            2460     137.827E-03     138.927E-03
            1694            2461     136.559E-03     138.761E-03
            1695             117     152.905E-03     151.108E-03
            1695             118     147.182E-03     143.742E-03
            1695            2460     137.827E-03     138.927E-03
            1695            2461     136.559E-03     138.761E-03
            1696             381     121.299E-03     124.172E-03
            1696             382     125.523E-03     125.898E-03
            1696            2461     136.559E-03     138.761E-03
            1696            2462     134.469E-03     136.856E-03
            1697             116     142.652E-03     152.547E-03
            1697             117     152.905E-03     151.108E-03
            1697            2461     136.559E-03     138.761E-03
            1697            2462     134.469E-03     136.856E-03
            1698             382     125.523E-03     125.898E-03
            1698             383     135.825E-03     135.505E-03
            1698            2462     134.469E-03     136.856E-03
            1698            2463     139.532E-03     138.531E-03
            1699             115     143.972E-03     139.352E-03
            1699             116     142.652E-03     152.547E-03
            1699            2462     134.469E-03     136.856E-03
            1699            2463     139.532E-03     138.531E-03
            1700             383     135.825E-03     135.505E-03
            1700             384     140.922E-03     142.982E-03
            1700            2463     139.532E-03     138.531E-03
            1700            2464     145.333E-03     146.622E-03
            1701             114     147.115E-03     143.738E-03
            1701             115     143.972E-03     139.352E-03
            1701            2463     139.532E-03     138.531E-03
            1701            2464     145.333E-03     146.622E-03
            1702             384     140.922E-03     142.982E-03
            1702             385     144.618E-03     147.763E-03
            1702            2464     145.333E-03     146.622E-03
            1702            2465     149.287E-03     152.149E-03
            1703             113     147.519E-03     150.635E-03
            1703             114     147.115E-03     143.738E-03
            1703            2464     145.333E-03     146.622E-03
            1703            2465     149.287E-03     152.149E-03
            1704             385     144.618E-03     147.763E-03
            1704             386     146.914E-03     150.781E-03
            1704            2465     149.287E-03     152.149E-03
            1704            2466     152.967E-03     155.361E-03
            1705             112     154.105E-03     151.933E-03
            1705             113     147.519E-03     150.635E-03
            1705            2465     149.287E-03     152.149E-03
            1705            2466     152.967E-03     155.361E-03
            1706             386     146.914E-03     150.781E-03
            1706             387     148.369E-03     151.767E-03
            1706            2466     152.967E-03     155.361E-03
            1706            2467     155.343E-03     158.778E-03
            1707             111     155.737E-03     160.232E-03
            1707             112     154.105E-03     151.933E-03
            1707            2466     152.967E-03     155.361E-03
            1707            2467     155.343E-03     158.778E-03
            1708             387     148.369E-03     151.767E-03
            1708             388     147.221E-03     150.322E-03
            1708            2467     155.343E-03     158.778E-03
            1708            2468     157.777E-03     159.322E-03
            1709             110     165.452E-03     161.503E-03
            1709             111     155.737E-03     160.232E-03
            1709            2467     155.343E-03     158.778E-03
            1709            2468     157.777E-03     159.322E-03
            1710             388     147.221E-03     150.322E-03
            1710             389     141.928E-03     145.086E-03
            1710            2468     157.777E-03     159.322E-03
            1710            2469     155.791E-03     158.050E-03
            1711             109     170.588E-03     168.397E-03
            1711             110     165.452E-03     161.503E-03
            1711            2468     157.777E-03     159.322E-03
            1711            2469     155.791E-03     158.050E-03
            1712              21     143.854E-03     147.826E-03
            1712             389     141.928E-03     145.086E-03
            1712             460     153.452E-03     157.471E-03
            1712            2469     155.791E-03     158.050E-03
            1713               6     160.473E-03     167.009E-03
            1713             109     170.588E-03     168.397E-03
            1713             460     153.452E-03     157.471E-03
            1713            2469     155.791E-03     158.050E-03
            1714               2     20.4992E-03     20.2964E-03
            1714              44     1.19510E-03     1.16681E-03
            1714             470     18.7375E-03     18.6467E-03
            1714            2470     1.14676E-03     1.12123E-03
            1715              43     1.19368E-03     1.17295E-03
            1715              44     1.19510E-03     1.16681E-03
            1715            2470     1.14676E-03     1.12123E-03
            1715            2471     1.14606E-03     1.12387E-03
            1716               1     1.17386E-03     1.17080E-03
            1716              43     1.19368E-03     1.17295E-03
            1716             461     1.12543E-03     1.12117E-03
            1716            2471     1.14606E-03     1.12387E-03
            1717             469     15.6405E-03     15.6957E-03
            1717             470     18.7375E-03     18.6467E-03
            1717            2470     1.14676E-03     1.12123E-03
            1717            2472     1.00474E-03     991.295E-06
            1718            2470     1.14676E-03     1.12123E-03
            1718            2471     1.14606E-03     1.12387E-03
            1718            2472     1.00474E-03     991.295E-06
            1718            2473     1.00278E-03     978.899E-06
            1719             461     1.12543E-03     1.12117E-03
            1719             462     982.033E-06     975.317E-06
            1719            2471     1.14606E-03     1.12387E-03
            1719            2473     1.00278E-03     978.899E-06
            1720             468     11.1027E-03     11.6791E-03
            1720             469     15.6405E-03     15.6957E-03
            1720            2472     1.00474E-03     991.295E-06
            1720            2474     790.046E-06     793.747E-06
            1721            2472     1.00474E-03     991.295E-06
            1721            2473     1.00278E-03     978.899E-06
            1721            2474     790.046E-06     793.747E-06
            1721            2475     782.710E-06     755.460E-06
            1722             462     982.033E-06     975.317E-06
            1722             463     763.102E-06     753.043E-06
            1722            2473     1.00278E-03     978.899E-06
            1722            2475     782.710E-06     755.460E-06
            1723             467     6.30867E-03     7.58691E-03
            1723             468     11.1027E-03     11.6791E-03
            1723            2474     790.046E-06     793.747E-06
            1723            2476     532.479E-06     575.216E-06
            1724            2474     790.046E-06     793.747E-06
            1724            2475     782.710E-06     755.460E-06
            1724            2476     532.479E-06     575.216E-06
            1724            2477     530.987E-06     495.042E-06
            1725             463     763.102E-06     753.043E-06
            1725             464     479.123E-06     473.192E-06
            1725            2475     782.710E-06     755.460E-06
            1725            2477     530.987E-06     495.042E-06
            1726             466     5.37090E-03     7.55025E-03
            1726             467     6.30867E-03     7.58691E-03
            1726            2476     532.479E-06     575.216E-06
            1726            2478     529.471E-06     602.717E-06
            1727            2476     532.479E-06     575.216E-06
            1727            2477     530.987E-06     495.042E-06
            1727            2478     529.471E-06     602.717E-06
            1727            2479     434.250E-06     430.682E-06
            1728             464     479.123E-06     473.192E-06
            1728             465     318.893E-06     392.495E-06
            1728            2477     530.987E-06     495.042E-06
            1728            2479     434.250E-06     430.682E-06
            1729              23     5.40875E-03     8.18529E-03
            1729             456     548.327E-06     644.018E-06
            1729             466     5.37090E-03     7.55025E-03
            1729            2478     529.471E-06     602.717E-06
            1730             456     548.327E-06     644.018E-06
            1730             457     355.500E-06     413.853E-06
            1730            2478     529.471E-06     602.717E-06
            1730            2479     434.250E-06     430.682E-06
            1731              24     273.311E-06     410.995E-06
            1731             457     355.500E-06     413.853E-06
            1731             465     318.893E-06     392.495E-06
            1731            2479     434.250E-06     430.682E-06
            2140               3     9.09588E-03     11.4114E-03
            2140              50     548.327E-06     644.018E-06
            2140             459     7.65403E-03     8.79290E-03
            2140            2823     540.663E-06     620.861E-06
            2141              20     5.95434E-03     5.45877E-03
            2141             459     7.65403E-03     8.79290E-03
            2141             539     630.255E-06     675.442E-06
            2141            2823     540.663E-06     620.861E-06
            2142              50     548.327E-06     644.018E-06
            2142              51     355.500E-06     413.853E-06
            2142            2823     540.663E-06     620.861E-06
            2142            2824     465.304E-06     485.662E-06
            2143             539     630.255E-06     675.442E-06
            2143             540     669.845E-06     635.795E-06
            2143            2823     540.663E-06     620.861E-06
            2143            2824     465.304E-06     485.662E-06
            2144               4     273.311E-06     410.995E-06
            2144              51     355.500E-06     413.853E-06
            2144             541     433.141E-06     460.902E-06
            2144            2824     465.304E-06     485.662E-06
            2145              26     662.599E-06     592.163E-06
            2145             540     669.845E-06     635.795E-06
            2145             541     433.141E-06     460.902E-06
            2145            2824     465.304E-06     485.662E-06
            2146               7     79.7885E-03     80.1710E-03
            2146             161     113.761E-03     112.926E-03
            2146             557     93.5777E-03     91.8350E-03
            2146            2825     135.685E-03     134.179E-03
            2147             160     113.697E-03     114.009E-03
            2147             161     113.761E-03     112.926E-03
            2147            2825     135.685E-03     134.179E-03
            2147            2826     138.369E-03     142.310E-03
            2148             159     110.417E-03     112.653E-03
            2148             160     113.697E-03     114.009E-03
            2148            2826     138.369E-03     142.310E-03
            2148            2827     142.841E-03     142.386E-03
            2149             158     111.477E-03     116.632E-03
            2149             159     110.417E-03     112.653E-03
            2149            2827     142.841E-03     142.386E-03
            2149            2828     145.342E-03     148.367E-03
            2150             157     106.744E-03     111.306E-03
            2150             158     111.477E-03     116.632E-03
            2150            2828     145.342E-03     148.367E-03
            2150            2829     139.223E-03     144.007E-03
            2151             156     112.610E-03     114.677E-03
            2151             157     106.744E-03     111.306E-03
            2151            2829     139.223E-03     144.007E-03
            2151            2830     145.569E-03     146.789E-03
            2152               5     81.3544E-03     84.2952E-03
            2152             156     112.610E-03     114.677E-03
            2152             542     110.738E-03     119.436E-03
            2152            2830     145.569E-03     146.789E-03
            2153             556     123.264E-03     127.418E-03
            2153             557     93.5777E-03     91.8350E-03
            2153            2825     135.685E-03     134.179E-03
            2153            2831     171.914E-03     167.890E-03
            2154            2825     135.685E-03     134.179E-03
            2154            2826     138.369E-03     142.310E-03
            2154            2831     171.914E-03     167.890E-03
            2154            2832     175.789E-03     179.983E-03
            2155            2826     138.369E-03     142.310E-03
            2155            2827     142.841E-03     142.386E-03
            2155            2832     175.789E-03     179.983E-03
            2155            2833     181.007E-03     179.730E-03
            2156            2827     142.841E-03     142.386E-03
            2156            2828     145.342E-03     148.367E-03
            2156            2833     181.007E-03     179.730E-03
            2156            2834     181.925E-03     182.396E-03
            2157            2828     145.342E-03     148.367E-03
            2157            2829     139.223E-03     144.007E-03
            2157            2834     181.925E-03     182.396E-03
            2157            2835     173.589E-03     180.253E-03
            2158            2829     139.223E-03     144.007E-03
            2158            2830     145.569E-03     146.789E-03
            2158            2835     173.589E-03     180.253E-03
            2158            2836     181.049E-03     182.499E-03
            2159             542     110.738E-03     119.436E-03
            2159             543     144.033E-03     157.747E-03
            2159            2830     145.569E-03     146.789E-03
            2159            2836     181.049E-03     182.499E-03
            2160             555     155.136E-03     168.606E-03
            2160             556     123.264E-03     127.418E-03
            2160            2831     171.914E-03     167.890E-03
            2160            2837     209.970E-03     199.546E-03
            2161            2831     171.914E-03     167.890E-03
            2161            2832     175.789E-03     179.983E-03
            2161            2837     209.970E-03     199.546E-03
            2161            2838     213.068E-03     212.529E-03
            2162            2832     175.789E-03     179.983E-03
            2162            2833     181.007E-03     179.730E-03
            2162            2838     213.068E-03     212.529E-03
            2162            2839     215.281E-03     214.133E-03
            2163            2833     181.007E-03     179.730E-03
            2163            2834     181.925E-03     182.396E-03
            2163            2839     215.281E-03     214.133E-03
            2163            2840     213.768E-03     215.759E-03
            2164            2834     181.925E-03     182.396E-03
            2164            2835     173.589E-03     180.253E-03
            2164            2840     213.768E-03     215.759E-03
            2164            2841     203.328E-03     216.036E-03
            2165            2835     173.589E-03     180.253E-03
            2165            2836     181.049E-03     182.499E-03
            2165            2841     203.328E-03     216.036E-03
            2165            2842     212.279E-03     213.899E-03
            2166             543     144.033E-03     157.747E-03
            2166             544     174.028E-03     194.151E-03
            2166            2836     181.049E-03     182.499E-03
            2166            2842     212.279E-03     213.899E-03
            2167             554     175.319E-03     205.489E-03
            2167             555     155.136E-03     168.606E-03
            2167            2837     209.970E-03     199.546E-03
            2167            2843     232.460E-03     223.673E-03
            2168            2837     209.970E-03     199.546E-03
            2168            2838     213.068E-03     212.529E-03
            2168            2843     232.460E-03     223.673E-03
            2168            2844     235.668E-03     236.222E-03
            2169            2838     213.068E-03     212.529E-03
            2169            2839     215.281E-03     214.133E-03
            2169            2844     235.668E-03     236.222E-03
            2169            2845     240.483E-03     242.512E-03
            2170            2839     215.281E-03     214.133E-03
            2170            2840     213.768E-03     215.759E-03
            2170            2845     240.483E-03     242.512E-03
            2170            2846     246.378E-03     246.239E-03
            2171            2840     213.768E-03     215.759E-03
            2171            2841     203.328E-03     216.036E-03
            2171            2846     246.378E-03     246.239E-03
            2171            2847     230.981E-03     247.453E-03
            2172            2841     203.328E-03     216.036E-03
            2172            2842     212.279E-03     213.899E-03
            2172            2847     230.981E-03     247.453E-03
            2172            2848     235.748E-03     237.719E-03
            2173             544     174.028E-03     194.151E-03
            2173             545     197.657E-03     223.198E-03
            2173            2842     212.279E-03     213.899E-03
            2173            2848     235.748E-03     237.719E-03
            2174             553     189.649E-03     226.300E-03
            2174             554     175.319E-03     205.489E-03
            2174            2843     232.460E-03     223.673E-03
            2174            2849     235.239E-03     235.614E-03
            2175            2843     232.460E-03     223.673E-03
            2175            2844     235.668E-03     236.222E-03
            2175            2849     235.239E-03     235.614E-03
            2175            2850     244.083E-03     245.561E-03
            2176            2844     235.668E-03     236.222E-03
            2176            2845     240.483E-03     242.512E-03
            2176            2850     244.083E-03     245.561E-03
            2176            2851     255.992E-03     257.369E-03
            2177            2845     240.483E-03     242.512E-03
            2177            2846     246.378E-03     246.239E-03
            2177            2851     255.992E-03     257.369E-03
            2177            2852     272.872E-03     264.453E-03
            2178            2846     246.378E-03     246.239E-03
            2178            2847     230.981E-03     247.453E-03
            2178            2852     272.872E-03     264.453E-03
            2178            2853     255.332E-03     264.752E-03
            2179            2847     230.981E-03     247.453E-03
            2179            2848     235.748E-03     237.719E-03
            2179            2853     255.332E-03     264.752E-03
            2179            2854     246.130E-03     248.864E-03
            2180             545     197.657E-03     223.198E-03
            2180             546     214.100E-03     235.141E-03
            2180            2848     235.748E-03     237.719E-03
            2180            2854     246.130E-03     248.864E-03
            2181              27     202.695E-03     225.860E-03
            2181             552     237.083E-03     242.274E-03
            2181             553     189.649E-03     226.300E-03
            2181            2849     235.239E-03     235.614E-03
            2182             551     250.322E-03     250.224E-03
            2182             552     237.083E-03     242.274E-03
            2182            2849     235.239E-03     235.614E-03
            2182            2850     244.083E-03     245.561E-03
            2183             550     262.517E-03     262.360E-03
            2183             551     250.322E-03     250.224E-03
            2183            2850     244.083E-03     245.561E-03
            2183            2851     255.992E-03     257.369E-03
            2184             549     274.503E-03     267.556E-03
            2184             550     262.517E-03     262.360E-03
            2184            2851     255.992E-03     257.369E-03
            2184            2852     272.872E-03     264.453E-03
            2185             548     258.832E-03     263.706E-03
            2185             549     274.503E-03     267.556E-03
            2185            2852     272.872E-03     264.453E-03
            2185            2853     255.332E-03     264.752E-03
            2186             547     245.950E-03     248.887E-03
            2186             548     258.832E-03     263.706E-03
            2186            2853     255.332E-03     264.752E-03
            2186            2854     246.130E-03     248.864E-03
            2187              25     219.892E-03     227.888E-03
            2187             546     214.100E-03     235.141E-03
            2187             547     245.950E-03     248.887E-03
            2187            2854     246.130E-03     248.864E-03
            2188              25     219.892E-03     227.888E-03
            2188             547     245.950E-03     248.887E-03
            2188             558     208.347E-03     210.270E-03
            2188            2855     238.449E-03     242.417E-03
            2189              28     192.842E-03     194.938E-03
            2189             558     208.347E-03     210.270E-03
            2189             559     229.822E-03     233.380E-03
            2189            2855     238.449E-03     242.417E-03
            2190             547     245.950E-03     248.887E-03
            2190             548     258.832E-03     263.706E-03
            2190            2855     238.449E-03     242.417E-03
            2190            2856     247.819E-03     252.924E-03
            2191             559     229.822E-03     233.380E-03
            2191             560     239.174E-03     242.505E-03
            2191            2855     238.449E-03     242.417E-03
            2191            2856     247.819E-03     252.924E-03
            2192             548     258.832E-03     263.706E-03
            2192             549     274.503E-03     267.556E-03
            2192            2856     247.819E-03     252.924E-03
            2192            2857     261.480E-03     261.716E-03
            2193             560     239.174E-03     242.505E-03
            2193             561     248.794E-03     251.176E-03
            2193            2856     247.819E-03     252.924E-03
            2193            2857     261.480E-03     261.716E-03
            2194             549     274.503E-03     267.556E-03
            2194             550     262.517E-03     262.360E-03
            2194            2857     261.480E-03     261.716E-03
            2194            2858     257.938E-03     261.135E-03
            2195             561     248.794E-03     251.176E-03
            2195             562     246.936E-03     251.132E-03
            2195            2857     261.480E-03     261.716E-03
            2195            2858     257.938E-03     261.135E-03
            2196             550     262.517E-03     262.360E-03
            2196             551     250.322E-03     250.224E-03
            2196            2858     257.938E-03     261.135E-03
            2196            2859     248.773E-03     252.352E-03
            2197             562     246.936E-03     251.132E-03
            2197             563     238.681E-03     244.395E-03
            2197            2858     257.938E-03     261.135E-03
            2197            2859     248.773E-03     252.352E-03
            2198             551     250.322E-03     250.224E-03
            2198             552     237.083E-03     242.274E-03
            2198            2859     248.773E-03     252.352E-03
            2198            2860     235.199E-03     241.431E-03
            2199             563     238.681E-03     244.395E-03
            2199             564     228.496E-03     233.510E-03
            2199            2859     248.773E-03     252.352E-03
            2199            2860     235.199E-03     241.431E-03
            2200              27     202.695E-03     225.860E-03
            2200             552     237.083E-03     242.274E-03
            2200             565     198.616E-03     208.357E-03
            2200            2860     235.199E-03     241.431E-03
            2201              29     190.137E-03     194.090E-03
            2201             564     228.496E-03     233.510E-03
            2201             565     198.616E-03     208.357E-03
            2201            2860     235.199E-03     241.431E-03
            2202              20     5.95434E-03     5.45877E-03
            2202             342     6.51163E-03     5.36266E-03
            2202             539     630.255E-06     675.442E-06
            2202            2861     606.115E-06     657.438E-06
            2203             341     6.73394E-03     5.50619E-03
            2203             342     6.51163E-03     5.36266E-03
            2203            2861     606.115E-06     657.438E-06
            2203            2862     598.928E-06     648.403E-06
            2204             340     6.84429E-03     5.57976E-03
            2204             341     6.73394E-03     5.50619E-03
            2204            2862     598.928E-06     648.403E-06
            2204            2863     595.502E-06     644.788E-06
            2205             339     6.78466E-03     5.52412E-03
            2205             340     6.84429E-03     5.57976E-03
            2205            2863     595.502E-06     644.788E-06
            2205            2864     592.798E-06     641.856E-06
            2206             338     6.63068E-03     5.38489E-03
            2206             339     6.78466E-03     5.52412E-03
            2206            2864     592.798E-06     641.856E-06
            2206            2865     590.893E-06     638.051E-06
            2207             337     6.41717E-03     5.17761E-03
            2207             338     6.63068E-03     5.38489E-03
            2207            2865     590.893E-06     638.051E-06
            2207            2866     588.909E-06     635.618E-06
            2208             336     6.16384E-03     4.93749E-03
            2208             337     6.41717E-03     5.17761E-03
            2208            2866     588.909E-06     635.618E-06
            2208            2867     587.949E-06     632.395E-06
            2209             335     5.89643E-03     4.67883E-03
            2209             336     6.16384E-03     4.93749E-03
            2209            2867     587.949E-06     632.395E-06
            2209            2868     586.834E-06     630.107E-06
            2210             334     5.61503E-03     4.40783E-03
            2210             335     5.89643E-03     4.67883E-03
            2210            2868     586.834E-06     630.107E-06
            2210            2869     586.525E-06     627.359E-06
            2211             333     5.33272E-03     4.13827E-03
            2211             334     5.61503E-03     4.40783E-03
            2211            2869     586.525E-06     627.359E-06
            2211            2870     586.201E-06     625.195E-06
            2212             332     5.04395E-03     3.86422E-03
            2212             333     5.33272E-03     4.13827E-03
            2212            2870     586.201E-06     625.195E-06
            2212            2871     586.538E-06     622.827E-06
            2213             331     4.75726E-03     3.60205E-03
            2213             332     5.04395E-03     3.86422E-03
            2213            2871     586.538E-06     622.827E-06
            2213            2872     586.948E-06     620.833E-06
            2214             330     4.45911E-03     3.33835E-03
            2214             331     4.75726E-03     3.60205E-03
            2214            2872     586.948E-06     620.833E-06
            2214            2873     587.926E-06     618.836E-06
            2215             329     4.16547E-03     3.10505E-03
            2215             330     4.45911E-03     3.33835E-03
            2215            2873     587.926E-06     618.836E-06
            2215            2874     589.155E-06     616.991E-06
            2216             328     3.84449E-03     2.89755E-03
            2216             329     4.16547E-03     3.10505E-03
            2216            2874     589.155E-06     616.991E-06
            2216            2875     590.399E-06     615.291E-06
            2217             327     3.55110E-03     2.82474E-03
            2217             328     3.84449E-03     2.89755E-03
            2217            2875     590.399E-06     615.291E-06
            2217            2876     592.215E-06     612.606E-06
            2218             326     3.21649E-03     3.06862E-03
            2218             327     3.55110E-03     2.82474E-03
            2218            2876     592.215E-06     612.606E-06
            2218            2877     599.551E-06     621.044E-06
            2219             325     3.07382E-03     4.57981E-03
            2219             326     3.21649E-03     3.06862E-03
            2219            2877     599.551E-06     621.044E-06
            2219            2878     616.039E-06     628.697E-06
            2220              16     5.26488E-03     6.72304E-03
            2220             324     626.089E-06     626.199E-06
            2220             325     3.07382E-03     4.57981E-03
            2220            2878     616.039E-06     628.697E-06
            2221             539     630.255E-06     675.442E-06
            2221             540     669.845E-06     635.795E-06
            2221            2861     606.115E-06     657.438E-06
            2221            2879     648.390E-06     621.165E-06
            2222            2861     606.115E-06     657.438E-06
            2222            2862     598.928E-06     648.403E-06
            2222            2879     648.390E-06     621.165E-06
            2222            2880     641.553E-06     612.384E-06
            2223            2862     598.928E-06     648.403E-06
            2223            2863     595.502E-06     644.788E-06
            2223            2880     641.553E-06     612.384E-06
            2223            2881     639.228E-06     611.702E-06
            2224            2863     595.502E-06     644.788E-06
            2224            2864     592.798E-06     641.856E-06
            2224            2881     639.228E-06     611.702E-06
            2224            2882     636.510E-06     609.743E-06
            2225            2864     592.798E-06     641.856E-06
            2225            2865     590.893E-06     638.051E-06
            2225            2882     636.510E-06     609.743E-06
            2225            2883     633.771E-06     607.654E-06
            2226            2865     590.893E-06     638.051E-06
            2226            2866     588.909E-06     635.618E-06
            2226            2883     633.771E-06     607.654E-06
            2226            2884     630.742E-06     606.382E-06
            2227            2866     588.909E-06     635.618E-06
            2227            2867     587.949E-06     632.395E-06
            2227            2884     630.742E-06     606.382E-06
            2227            2885     628.286E-06     604.873E-06
            2228            2867     587.949E-06     632.395E-06
            2228            2868     586.834E-06     630.107E-06
            2228            2885     628.286E-06     604.873E-06
            2228            2886     625.512E-06     604.209E-06
            2229            2868     586.834E-06     630.107E-06
            2229            2869     586.525E-06     627.359E-06
            2229            2886     625.512E-06     604.209E-06
            2229            2887     623.255E-06     603.438E-06
            2230            2869     586.525E-06     627.359E-06
            2230            2870     586.201E-06     625.195E-06
            2230            2887     623.255E-06     603.438E-06
            2230            2888     620.778E-06     603.363E-06
            2231            2870     586.201E-06     625.195E-06
            2231            2871     586.538E-06     622.827E-06
            2231            2888     620.778E-06     603.363E-06
            2231            2889     618.746E-06     603.327E-06
            2232            2871     586.538E-06     622.827E-06
            2232            2872     586.948E-06     620.833E-06
            2232            2889     618.746E-06     603.327E-06
            2232            2890     616.562E-06     603.851E-06
            2233            2872     586.948E-06     620.833E-06
            2233            2873     587.926E-06     618.836E-06
            2233            2890     616.562E-06     603.851E-06
            2233            2891     614.748E-06     604.566E-06
            2234            2873     587.926E-06     618.836E-06
            2234            2874     589.155E-06     616.991E-06
            2234            2891     614.748E-06     604.566E-06
            2234            2892     612.963E-06     605.646E-06
            2235            2874     589.155E-06     616.991E-06
            2235            2875     590.399E-06     615.291E-06
            2235            2892     612.963E-06     605.646E-06
            2235            2893     611.013E-06     607.037E-06
            2236            2875     590.399E-06     615.291E-06
            2236            2876     592.215E-06     612.606E-06
            2236            2893     611.013E-06     607.037E-06
            2236            2894     609.511E-06     607.504E-06
            2237            2876     592.215E-06     612.606E-06
            2237            2877     599.551E-06     621.044E-06
            2237            2894     609.511E-06     607.504E-06
            2237            2895     612.824E-06     619.285E-06
            2238            2877     599.551E-06     621.044E-06
            2238            2878     616.039E-06     628.697E-06
            2238            2895     612.824E-06     619.285E-06
            2238            2896     624.848E-06     631.426E-06
            2239             323     632.700E-06     631.709E-06
            2239             324     626.089E-06     626.199E-06
            2239            2878     616.039E-06     628.697E-06
            2239            2896     624.848E-06     631.426E-06
            2240              26     662.599E-06     592.163E-06
            2240             540     669.845E-06     635.795E-06
            2240             583     681.294E-06     607.770E-06
            2240            2879     648.390E-06     621.165E-06
            2241             582     670.911E-06     600.250E-06
            2241             583     681.294E-06     607.770E-06
            2241            2879     648.390E-06     621.165E-06
            2241            2880     641.553E-06     612.384E-06
            2242             581     668.846E-06     600.352E-06
            2242             582     670.911E-06     600.250E-06
            2242            2880     641.553E-06     612.384E-06
            2242            2881     639.228E-06     611.702E-06
            2243             580     667.310E-06     598.970E-06
            2243             581     668.846E-06     600.352E-06
            2243            2881     639.228E-06     611.702E-06
            2243            2882     636.510E-06     609.743E-06
            2244             579     663.934E-06     599.060E-06
            2244             580     667.310E-06     598.970E-06
            2244            2882     636.510E-06     609.743E-06
            2244            2883     633.771E-06     607.654E-06
            2245             578     661.870E-06     598.279E-06
            2245             579     663.934E-06     599.060E-06
            2245            2883     633.771E-06     607.654E-06
            2245            2884     630.742E-06     606.382E-06
            2246             577     658.664E-06     598.949E-06
            2246             578     661.870E-06     598.279E-06
            2246            2884     630.742E-06     606.382E-06
            2246            2885     628.286E-06     604.873E-06
            2247             576     656.411E-06     599.293E-06
            2247             577     658.664E-06     598.949E-06
            2247            2885     628.286E-06     604.873E-06
            2247            2886     625.512E-06     604.209E-06
            2248             575     653.510E-06     600.698E-06
            2248             576     656.411E-06     599.293E-06
            2248            2886     625.512E-06     604.209E-06
            2248            2887     623.255E-06     603.438E-06
            2249             574     651.150E-06     602.089E-06
            2249             575     653.510E-06     600.698E-06
            2249            2887     623.255E-06     603.438E-06
            2249            2888     620.778E-06     603.363E-06
            2250             573     648.488E-06     604.329E-06
            2250             574     651.150E-06     602.089E-06
            2250            2888     620.778E-06     603.363E-06
            2250            2889     618.746E-06     603.327E-06
            2251             572     646.103E-06     606.683E-06
            2251             573     648.488E-06     604.329E-06
            2251            2889     618.746E-06     603.327E-06
            2251            2890     616.562E-06     603.851E-06
            2252             571     643.656E-06     609.786E-06
            2252             572     646.103E-06     606.683E-06
            2252            2890     616.562E-06     603.851E-06
            2252            2891     614.748E-06     604.566E-06
            2253             570     641.203E-06     613.124E-06
            2253             571     643.656E-06     609.786E-06
            2253            2891     614.748E-06     604.566E-06
            2253            2892     612.963E-06     605.646E-06
            2254             569     638.906E-06     616.580E-06
            2254             570     641.203E-06     613.124E-06
            2254            2892     612.963E-06     605.646E-06
            2254            2893     611.013E-06     607.037E-06
            2255             568     637.179E-06     621.632E-06
            2255             569     638.906E-06     616.580E-06
            2255            2893     611.013E-06     607.037E-06
            2255            2894     609.511E-06     607.504E-06
            2256             567     639.557E-06     634.982E-06
            2256             568     637.179E-06     621.632E-06
            2256            2894     609.511E-06     607.504E-06
            2256            2895     612.824E-06     619.285E-06
            2257             566     604.847E-06     612.216E-06
            2257             567     639.557E-06     634.982E-06
            2257            2895     612.824E-06     619.285E-06
            2257            2896     624.848E-06     631.426E-06
            2258              19     567.124E-06     578.968E-06
            2258             323     632.700E-06     631.709E-06
            2258             566     604.847E-06     612.216E-06
            2258            2896     624.848E-06     631.426E-06
            2259              28     192.842E-03     194.938E-03
            2259             559     229.822E-03     233.380E-03
            2259             584     182.462E-03     185.346E-03
            2259            2897     223.354E-03     226.838E-03
            2260             584     182.462E-03     185.346E-03
            2260             585     172.708E-03     177.287E-03
            2260            2897     223.354E-03     226.838E-03
            2260            2898     216.317E-03     220.107E-03
            2261             585     172.708E-03     177.287E-03
            2261             586     163.947E-03     169.704E-03
            2261            2898     216.317E-03     220.107E-03
            2261            2899     209.990E-03     213.513E-03
            2262             586     163.947E-03     169.704E-03
            2262             587     155.416E-03     162.436E-03
            2262            2899     209.990E-03     213.513E-03
            2262            2900     203.675E-03     207.432E-03
            2263             587     155.416E-03     162.436E-03
            2263             588     147.277E-03     155.267E-03
            2263            2900     203.675E-03     207.432E-03
            2263            2901     197.897E-03     201.509E-03
            2264             588     147.277E-03     155.267E-03
            2264             589     139.385E-03     148.175E-03
            2264            2901     197.897E-03     201.509E-03
            2264            2902     192.367E-03     196.066E-03
            2265             589     139.385E-03     148.175E-03
            2265             590     131.777E-03     141.155E-03
            2265            2902     192.367E-03     196.066E-03
            2265            2903     187.310E-03     190.942E-03
            2266             590     131.777E-03     141.155E-03
            2266             591     124.460E-03     134.206E-03
            2266            2903     187.310E-03     190.942E-03
            2266            2904     182.655E-03     186.281E-03
            2267             591     124.460E-03     134.206E-03
            2267             592     117.462E-03     127.350E-03
            2267            2904     182.655E-03     186.281E-03
            2267            2905     178.493E-03     182.057E-03
            2268             592     117.462E-03     127.350E-03
            2268             593     110.809E-03     120.604E-03
            2268            2905     178.493E-03     182.057E-03
            2268            2906     174.832E-03     178.333E-03
            2269             593     110.809E-03     120.604E-03
            2269             594     104.544E-03     113.978E-03
            2269            2906     174.832E-03     178.333E-03
            2269            2907     171.721E-03     175.125E-03
            2270             594     104.544E-03     113.978E-03
            2270             595     98.6732E-03     107.496E-03
            2270            2907     171.721E-03     175.125E-03
            2270            2908     169.174E-03     172.465E-03
            2271             595     98.6732E-03     107.496E-03
            2271             596     93.2656E-03     101.154E-03
            2271            2908     169.174E-03     172.465E-03
            2271            2909     167.247E-03     170.392E-03
            2272             596     93.2656E-03     101.154E-03
            2272             597     88.2797E-03     94.9328E-03
            2272            2909     167.247E-03     170.392E-03
            2272            2910     165.858E-03     168.834E-03
            2273             597     88.2797E-03     94.9328E-03
            2273             598     84.1719E-03     89.0915E-03
            2273            2910     165.858E-03     168.834E-03
            2273            2911     165.370E-03     168.203E-03
            2274             598     84.1719E-03     89.0915E-03
            2274             599     83.9788E-03     85.7978E-03
            2274            2911     165.370E-03     168.203E-03
            2274            2912     164.471E-03     166.832E-03
            2275             599     83.9788E-03     85.7978E-03
            2275             600     90.9331E-03     91.0179E-03
            2275            2912     164.471E-03     166.832E-03
            2275            2913     168.251E-03     171.542E-03
            2276             600     90.9331E-03     91.0179E-03
            2276             601     97.6058E-03     93.9558E-03
            2276            2913     168.251E-03     171.542E-03
            2276            2914     159.144E-03     156.270E-03
            2277              22     69.7670E-03     83.4965E-03
            2277             601     97.6058E-03     93.9558E-03
            2277             602     90.6578E-03     103.270E-03
            2277            2914     159.144E-03     156.270E-03
            2278             559     229.822E-03     233.380E-03
            2278             560     239.174E-03     242.505E-03
            2278            2897     223.354E-03     226.838E-03
            2278            2915     230.883E-03     234.164E-03
            2279            2897     223.354E-03     226.838E-03
            2279            2898     216.317E-03     220.107E-03
            2279            2915     230.883E-03     234.164E-03
            2279            2916     223.105E-03     225.797E-03
            2280            2898     216.317E-03     220.107E-03
            2280            2899     209.990E-03     213.513E-03
            2280            2916     223.105E-03     225.797E-03
            2280            2917     215.874E-03     217.992E-03
            2281            2899     209.990E-03     213.513E-03
            2281            2900     203.675E-03     207.432E-03
            2281            2917     215.874E-03     217.992E-03
            2281            2918     209.226E-03     211.058E-03
            2282            2900     203.675E-03     207.432E-03
            2282            2901     197.897E-03     201.509E-03
            2282            2918     209.226E-03     211.058E-03
            2282            2919     203.145E-03     204.470E-03
            2283            2901     197.897E-03     201.509E-03
            2283            2902     192.367E-03     196.066E-03
            2283            2919     203.145E-03     204.470E-03
            2283            2920     197.429E-03     198.573E-03
            2284            2902     192.367E-03     196.066E-03
            2284            2903     187.310E-03     190.942E-03
            2284            2920     197.429E-03     198.573E-03
            2284            2921     192.162E-03     193.049E-03
            2285            2903     187.310E-03     190.942E-03
            2285            2904     182.655E-03     186.281E-03
            2285            2921     192.162E-03     193.049E-03
            2285            2922     187.254E-03     188.091E-03
            2286            2904     182.655E-03     186.281E-03
            2286            2905     178.493E-03     182.057E-03
            2286            2922     187.254E-03     188.091E-03
            2286            2923     182.743E-03     183.582E-03
            2287            2905     178.493E-03     182.057E-03
            2287            2906     174.832E-03     178.333E-03
            2287            2923     182.743E-03     183.582E-03
            2287            2924     178.626E-03     179.612E-03
            2288            2906     174.832E-03     178.333E-03
            2288            2907     171.721E-03     175.125E-03
            2288            2924     178.626E-03     179.612E-03
            2288            2925     174.901E-03     176.152E-03
            2289            2907     171.721E-03     175.125E-03
            2289            2908     169.174E-03     172.465E-03
            2289            2925     174.901E-03     176.152E-03
            2289            2926     171.592E-03     173.240E-03
            2290            2908     169.174E-03     172.465E-03
            2290            2909     167.247E-03     170.392E-03
            2290            2926     171.592E-03     173.240E-03
            2290            2927     168.620E-03     170.806E-03
            2291            2909     167.247E-03     170.392E-03
            2291            2910     165.858E-03     168.834E-03
            2291            2927     168.620E-03     170.806E-03
            2291            2928     165.811E-03     168.685E-03
            2292            2910     165.858E-03     168.834E-03
            2292            2911     165.370E-03     168.203E-03
            2292            2928     165.811E-03     168.685E-03
            2292            2929     163.097E-03     166.615E-03
            2293            2911     165.370E-03     168.203E-03
            2293            2912     164.471E-03     166.832E-03
            2293            2929     163.097E-03     166.615E-03
            2293            2930     158.499E-03     162.214E-03
            2294            2912     164.471E-03     166.832E-03
            2294            2913     168.251E-03     171.542E-03
            2294            2930     158.499E-03     162.214E-03
            2294            2931     155.802E-03     160.621E-03
            2295            2913     168.251E-03     171.542E-03
            2295            2914     159.144E-03     156.270E-03
            2295            2931     155.802E-03     160.621E-03
            2295            2932     144.673E-03     144.174E-03
            2296             602     90.6578E-03     103.270E-03
            2296             603     91.1720E-03     100.002E-03
            2296            2914     159.144E-03     156.270E-03
            2296            2932     144.673E-03     144.174E-03
            2297             560     239.174E-03     242.505E-03
            2297             561     248.794E-03     251.176E-03
            2297            2915     230.883E-03     234.164E-03
            2297            2933     236.998E-03     240.733E-03
            2298            2915     230.883E-03     234.164E-03
            2298            2916     223.105E-03     225.797E-03
            2298            2933     236.998E-03     240.733E-03
            2298            2934     227.077E-03     231.904E-03
            2299            2916     223.105E-03     225.797E-03
            2299            2917     215.874E-03     217.992E-03
            2299            2934     227.077E-03     231.904E-03
            2299            2935     218.304E-03     223.991E-03
            2300            2917     215.874E-03     217.992E-03
            2300            2918     209.226E-03     211.058E-03
            2300            2935     218.304E-03     223.991E-03
            2300            2936     210.636E-03     217.130E-03
            2301            2918     209.226E-03     211.058E-03
            2301            2919     203.145E-03     204.470E-03
            2301            2936     210.636E-03     217.130E-03
            2301            2937     203.565E-03     210.819E-03
            2302            2919     203.145E-03     204.470E-03
            2302            2920     197.429E-03     198.573E-03
            2302            2937     203.565E-03     210.819E-03
            2302            2938     197.160E-03     205.090E-03
            2303            2920     197.429E-03     198.573E-03
            2303            2921     192.162E-03     193.049E-03
            2303            2938     197.160E-03     205.090E-03
            2303            2939     191.239E-03     199.741E-03
            2304            2921     192.162E-03     193.049E-03
            2304            2922     187.254E-03     188.091E-03
            2304            2939     191.239E-03     199.741E-03
            2304            2940     185.830E-03     194.789E-03
            2305            2922     187.254E-03     188.091E-03
            2305            2923     182.743E-03     183.582E-03
            2305            2940     185.830E-03     194.789E-03
            2305            2941     180.881E-03     190.158E-03
            2306            2923     182.743E-03     183.582E-03
            2306            2924     178.626E-03     179.612E-03
            2306            2941     180.881E-03     190.158E-03
            2306            2942     176.415E-03     185.873E-03
            2307            2924     178.626E-03     179.612E-03
            2307            2925     174.901E-03     176.152E-03
            2307            2942     176.415E-03     185.873E-03
            2307            2943     172.432E-03     181.908E-03
            2308            2925     174.901E-03     176.152E-03
            2308            2926     171.592E-03     173.240E-03
            2308            2943     172.432E-03     181.908E-03
            2308            2944     168.953E-03     178.297E-03
            2309            2926     171.592E-03     173.240E-03
            2309            2927     168.620E-03     170.806E-03
            2309            2944     168.953E-03     178.297E-03
            2309            2945     165.955E-03     175.006E-03
            2310            2927     168.620E-03     170.806E-03
            2310            2928     165.811E-03     168.685E-03
            2310            2945     165.955E-03     175.006E-03
            2310            2946     163.234E-03     171.804E-03
            2311            2928     165.811E-03     168.685E-03
            2311            2929     163.097E-03     166.615E-03
            2311            2946     163.234E-03     171.804E-03
            2311            2947     160.624E-03     168.376E-03
            2312            2929     163.097E-03     166.615E-03
            2312            2930     158.499E-03     162.214E-03
            2312            2947     160.624E-03     168.376E-03
            2312            2948     155.727E-03     161.882E-03
            2313            2930     158.499E-03     162.214E-03
            2313            2931     155.802E-03     160.621E-03
            2313            2948     155.727E-03     161.882E-03
            2313            2949     148.772E-03     152.394E-03
            2314            2931     155.802E-03     160.621E-03
            2314            2932     144.673E-03     144.174E-03
            2314            2949     148.772E-03     152.394E-03
            2314            2950     133.483E-03     131.811E-03
            2315             603     91.1720E-03     100.002E-03
            2315             604     89.5973E-03     98.4728E-03
            2315            2932     144.673E-03     144.174E-03
            2315            2950     133.483E-03     131.811E-03
            2316             561     248.794E-03     251.176E-03
            2316             562     246.936E-03     251.132E-03
            2316            2933     236.998E-03     240.733E-03
            2316            2951     236.098E-03     241.001E-03
            2317            2933     236.998E-03     240.733E-03
            2317            2934     227.077E-03     231.904E-03
            2317            2951     236.098E-03     241.001E-03
            2317            2952     227.533E-03     232.903E-03
            2318            2934     227.077E-03     231.904E-03
            2318            2935     218.304E-03     223.991E-03
            2318            2952     227.533E-03     232.903E-03
            2318            2953     220.530E-03     225.813E-03
            2319            2935     218.304E-03     223.991E-03
            2319            2936     210.636E-03     217.130E-03
            2319            2953     220.530E-03     225.813E-03
            2319            2954     213.839E-03     219.438E-03
            2320            2936     210.636E-03     217.130E-03
            2320            2937     203.565E-03     210.819E-03
            2320            2954     213.839E-03     219.438E-03
            2320            2955     207.754E-03     213.552E-03
            2321            2937     203.565E-03     210.819E-03
            2321            2938     197.160E-03     205.090E-03
            2321            2955     207.754E-03     213.552E-03
            2321            2956     202.001E-03     208.026E-03
            2322            2938     197.160E-03     205.090E-03
            2322            2939     191.239E-03     199.741E-03
            2322            2956     202.001E-03     208.026E-03
            2322            2957     196.668E-03     202.881E-03
            2323            2939     191.239E-03     199.741E-03
            2323            2940     185.830E-03     194.789E-03
            2323            2957     196.668E-03     202.881E-03
            2323            2958     191.684E-03     198.040E-03
            2324            2940     185.830E-03     194.789E-03
            2324            2941     180.881E-03     190.158E-03
            2324            2958     191.684E-03     198.040E-03
            2324            2959     187.092E-03     193.542E-03
            2325            2941     180.881E-03     190.158E-03
            2325            2942     176.415E-03     185.873E-03
            2325            2959     187.092E-03     193.542E-03
            2325            2960     182.878E-03     189.369E-03
            2326            2942     176.415E-03     185.873E-03
            2326            2943     172.432E-03     181.908E-03
            2326            2960     182.878E-03     189.369E-03
            2326            2961     179.103E-03     185.576E-03
            2327            2943     172.432E-03     181.908E-03
            2327            2944     168.953E-03     178.297E-03
            2327            2961     179.103E-03     185.576E-03
            2327            2962     175.812E-03     182.208E-03
            2328            2944     168.953E-03     178.297E-03
            2328            2945     165.955E-03     175.006E-03
            2328            2962     175.812E-03     182.208E-03
            2328            2963     173.121E-03     179.374E-03
            2329            2945     165.955E-03     175.006E-03
            2329            2946     163.234E-03     171.804E-03
            2329            2963     173.121E-03     179.374E-03
            2329            2964     171.206E-03     177.209E-03
            2330            2946     163.234E-03     171.804E-03
            2330            2947     160.624E-03     168.376E-03
            2330            2964     171.206E-03     177.209E-03
            2330            2965     169.524E-03     175.355E-03
            2331            2947     160.624E-03     168.376E-03
            2331            2948     155.727E-03     161.882E-03
            2331            2965     169.524E-03     175.355E-03
            2331            2966     167.492E-03     173.194E-03
            2332            2948     155.727E-03     161.882E-03
            2332            2949     148.772E-03     152.394E-03
            2332            2966     167.492E-03     173.194E-03
            2332            2967     158.803E-03     160.984E-03
            2333            2949     148.772E-03     152.394E-03
            2333            2950     133.483E-03     131.811E-03
            2333            2967     158.803E-03     160.984E-03
            2333            2968     131.735E-03     126.111E-03
            2334             604     89.5973E-03     98.4728E-03
            2334             605     86.7637E-03     75.3415E-03
            2334            2950     133.483E-03     131.811E-03
            2334            2968     131.735E-03     126.111E-03
            2335             562     246.936E-03     251.132E-03
            2335             563     238.681E-03     244.395E-03
            2335            2951     236.098E-03     241.001E-03
            2335            2969     231.712E-03     236.668E-03
            2336            2951     236.098E-03     241.001E-03
            2336            2952     227.533E-03     232.903E-03
            2336            2969     231.712E-03     236.668E-03
            2336            2970     226.572E-03     230.688E-03
            2337            2952     227.533E-03     232.903E-03
            2337            2953     220.530E-03     225.813E-03
            2337            2970     226.572E-03     230.688E-03
            2337            2971     221.426E-03     225.362E-03
            2338            2953     220.530E-03     225.813E-03
            2338            2954     213.839E-03     219.438E-03
            2338            2971     221.426E-03     225.362E-03
            2338            2972     216.507E-03     220.110E-03
            2339            2954     213.839E-03     219.438E-03
            2339            2955     207.754E-03     213.552E-03
            2339            2972     216.507E-03     220.110E-03
            2339            2973     211.604E-03     214.985E-03
            2340            2955     207.754E-03     213.552E-03
            2340            2956     202.001E-03     208.026E-03
            2340            2973     211.604E-03     214.985E-03
            2340            2974     206.849E-03     210.008E-03
            2341            2956     202.001E-03     208.026E-03
            2341            2957     196.668E-03     202.881E-03
            2341            2974     206.849E-03     210.008E-03
            2341            2975     202.234E-03     205.203E-03
            2342            2957     196.668E-03     202.881E-03
            2342            2958     191.684E-03     198.040E-03
            2342            2975     202.234E-03     205.203E-03
            2342            2976     197.840E-03     200.642E-03
            2343            2958     191.684E-03     198.040E-03
            2343            2959     187.092E-03     193.542E-03
            2343            2976     197.840E-03     200.642E-03
            2343            2977     193.675E-03     196.346E-03
            2344            2959     187.092E-03     193.542E-03
            2344            2960     182.878E-03     189.369E-03
            2344            2977     193.675E-03     196.346E-03
            2344            2978     189.800E-03     192.368E-03
            2345            2960     182.878E-03     189.369E-03
            2345            2961     179.103E-03     185.576E-03
            2345            2978     189.800E-03     192.368E-03
            2345            2979     186.245E-03     188.749E-03
            2346            2961     179.103E-03     185.576E-03
            2346            2962     175.812E-03     182.208E-03
            2346            2979     186.245E-03     188.749E-03
            2346            2980     183.096E-03     185.568E-03
            2347            2962     175.812E-03     182.208E-03
            2347            2963     173.121E-03     179.374E-03
            2347            2980     183.096E-03     185.568E-03
            2347            2981     180.452E-03     182.911E-03
            2348            2963     173.121E-03     179.374E-03
            2348            2964     171.206E-03     177.209E-03
            2348            2981     180.452E-03     182.911E-03
            2348            2982     178.448E-03     180.981E-03
            2349            2964     171.206E-03     177.209E-03
            2349            2965     169.524E-03     175.355E-03
            2349            2982     178.448E-03     180.981E-03
            2349            2983     176.757E-03     179.475E-03
            2350            2965     169.524E-03     175.355E-03
            2350            2966     167.492E-03     173.194E-03
            2350            2983     176.757E-03     179.475E-03
            2350            2984     174.512E-03     177.893E-03
            2351            2966     167.492E-03     173.194E-03
            2351            2967     158.803E-03     160.984E-03
            2351            2984     174.512E-03     177.893E-03
            2351            2985     165.918E-03     167.970E-03
            2352            2967     158.803E-03     160.984E-03
            2352            2968     131.735E-03     126.111E-03
            2352            2985     165.918E-03     167.970E-03
            2352            2986     138.772E-03     135.852E-03
            2353             605     86.7637E-03     75.3415E-03
            2353             606     93.4889E-03     82.7162E-03
            2353            2968     131.735E-03     126.111E-03
            2353            2986     138.772E-03     135.852E-03
            2354             563     238.681E-03     244.395E-03
            2354             564     228.496E-03     233.510E-03
            2354            2969     231.712E-03     236.668E-03
            2354            2987     227.376E-03     230.510E-03
            2355            2969     231.712E-03     236.668E-03
            2355            2970     226.572E-03     230.688E-03
            2355            2987     227.376E-03     230.510E-03
            2355            2988     225.368E-03     227.534E-03
            2356            2970     226.572E-03     230.688E-03
            2356            2971     221.426E-03     225.362E-03
            2356            2988     225.368E-03     227.534E-03
            2356            2989     222.574E-03     224.058E-03
            2357            2971     221.426E-03     225.362E-03
            2357            2972     216.507E-03     220.110E-03
            2357            2989     222.574E-03     224.058E-03
            2357            2990     219.401E-03     220.084E-03
            2358            2972     216.507E-03     220.110E-03
            2358            2973     211.604E-03     214.985E-03
            2358            2990     219.401E-03     220.084E-03
            2358            2991     215.839E-03     215.817E-03
            2359            2973     211.604E-03     214.985E-03
            2359            2974     206.849E-03     210.008E-03
            2359            2991     215.839E-03     215.817E-03
            2359            2992     212.090E-03     211.415E-03
            2360            2974     206.849E-03     210.008E-03
            2360            2975     202.234E-03     205.203E-03
            2360            2992     212.090E-03     211.415E-03
            2360            2993     208.272E-03     207.018E-03
            2361            2975     202.234E-03     205.203E-03
            2361            2976     197.840E-03     200.642E-03
            2361            2993     208.272E-03     207.018E-03
            2361            2994     204.470E-03     202.750E-03
            2362            2976     197.840E-03     200.642E-03
            2362            2977     193.675E-03     196.346E-03
            2362            2994     204.470E-03     202.750E-03
            2362            2995     200.778E-03     198.690E-03
            2363            2977     193.675E-03     196.346E-03
            2363            2978     189.800E-03     192.368E-03
            2363            2995     200.778E-03     198.690E-03
            2363            2996     197.241E-03     194.914E-03
            2364            2978     189.800E-03     192.368E-03
            2364            2979     186.245E-03     188.749E-03
            2364            2996     197.241E-03     194.914E-03
            2364            2997     193.917E-03     191.467E-03
            2365            2979     186.245E-03     188.749E-03
            2365            2980     183.096E-03     185.568E-03
            2365            2997     193.917E-03     191.467E-03
            2365            2998     190.829E-03     188.399E-03
            2366            2980     183.096E-03     185.568E-03
            2366            2981     180.452E-03     182.911E-03
            2366            2998     190.829E-03     188.399E-03
            2366            2999     187.991E-03     185.712E-03
            2367            2981     180.452E-03     182.911E-03
            2367            2982     178.448E-03     180.981E-03
            2367            2999     187.991E-03     185.712E-03
            2367            3000     185.196E-03     183.243E-03
            2368            2982     178.448E-03     180.981E-03
            2368            2983     176.757E-03     179.475E-03
            2368            3000     185.196E-03     183.243E-03
            2368            3001     182.480E-03     180.934E-03
            2369            2983     176.757E-03     179.475E-03
            2369            2984     174.512E-03     177.893E-03
            2369            3001     182.480E-03     180.934E-03
            2369            3002     177.536E-03     176.412E-03
            2370            2984     174.512E-03     177.893E-03
            2370            2985     165.918E-03     167.970E-03
            2370            3002     177.536E-03     176.412E-03
            2370            3003     170.939E-03     171.234E-03
            2371            2985     165.918E-03     167.970E-03
            2371            2986     138.772E-03     135.852E-03
            2371            3003     170.939E-03     171.234E-03
            2371            3004     154.775E-03     155.996E-03
            2372             606     93.4889E-03     82.7162E-03
            2372             607     103.761E-03     116.205E-03
            2372            2986     138.772E-03     135.852E-03
            2372            3004     154.775E-03     155.996E-03
            2373              29     190.137E-03     194.090E-03
            2373             564     228.496E-03     233.510E-03
            2373             625     186.983E-03     190.001E-03
            2373            2987     227.376E-03     230.510E-03
            2374             624     182.896E-03     186.016E-03
            2374             625     186.983E-03     190.001E-03
            2374            2987     227.376E-03     230.510E-03
            2374            2988     225.368E-03     227.534E-03
            2375             623     179.197E-03     181.646E-03
            2375             624     182.896E-03     186.016E-03
            2375            2988     225.368E-03     227.534E-03
            2375            2989     222.574E-03     224.058E-03
            2376             622     174.728E-03     176.848E-03
            2376             623     179.197E-03     181.646E-03
            2376            2989     222.574E-03     224.058E-03
            2376            2990     219.401E-03     220.084E-03
            2377             621     170.194E-03     171.737E-03
            2377             622     174.728E-03     176.848E-03
            2377            2990     219.401E-03     220.084E-03
            2377            2991     215.839E-03     215.817E-03
            2378             620     165.265E-03     166.350E-03
            2378             621     170.194E-03     171.737E-03
            2378            2991     215.839E-03     215.817E-03
            2378            2992     212.090E-03     211.415E-03
            2379             619     160.279E-03     160.883E-03
            2379             620     165.265E-03     166.350E-03
            2379            2992     212.090E-03     211.415E-03
            2379            2993     208.272E-03     207.018E-03
            2380             618     155.139E-03     155.369E-03
            2380             619     160.279E-03     160.883E-03
            2380            2993     208.272E-03     207.018E-03
            2380            2994     204.470E-03     202.750E-03
            2381             617     150.027E-03     149.924E-03
            2381             618     155.139E-03     155.369E-03
            2381            2994     204.470E-03     202.750E-03
            2381            2995     200.778E-03     198.690E-03
            2382             616     144.909E-03     144.579E-03
            2382             617     150.027E-03     149.924E-03
            2382            2995     200.778E-03     198.690E-03
            2382            2996     197.241E-03     194.914E-03
            2383             615     139.883E-03     139.394E-03
            2383             616     144.909E-03     144.579E-03
            2383            2996     197.241E-03     194.914E-03
            2383            2997     193.917E-03     191.467E-03
            2384             614     134.930E-03     134.392E-03
            2384             615     139.883E-03     139.394E-03
            2384            2997     193.917E-03     191.467E-03
            2384            2998     190.829E-03     188.399E-03
            2385             613     130.054E-03     129.555E-03
            2385             614     134.930E-03     134.392E-03
            2385            2998     190.829E-03     188.399E-03
            2385            2999     187.991E-03     185.712E-03
            2386             612     125.170E-03     124.795E-03
            2386             613     130.054E-03     129.555E-03
            2386            2999     187.991E-03     185.712E-03
            2386            3000     185.196E-03     183.243E-03
            2387             611     120.161E-03     119.926E-03
            2387             612     125.170E-03     124.795E-03
            2387            3000     185.196E-03     183.243E-03
            2387            3001     182.480E-03     180.934E-03
            2388             610     114.244E-03     113.889E-03
            2388             611     120.161E-03     119.926E-03
            2388            3001     182.480E-03     180.934E-03
            2388            3002     177.536E-03     176.412E-03
            2389             609     108.899E-03     109.004E-03
            2389             610     114.244E-03     113.889E-03
            2389            3002     177.536E-03     176.412E-03
            2389            3003     170.939E-03     171.234E-03
            2390             608     104.930E-03     103.069E-03
            2390             609     108.899E-03     109.004E-03
            2390            3003     170.939E-03     171.234E-03
            2390            3004     154.775E-03     155.996E-03
            2391              30     72.0702E-03     85.0202E-03
            2391             607     103.761E-03     116.205E-03
            2391             608     104.930E-03     103.069E-03
            2391            3004     154.775E-03     155.996E-03
            2392              17     5.93188E-03     4.69016E-03
            2392             302     7.90004E-03     6.87072E-03
            2392             672     12.2693E-03     10.3789E-03
            2392            3005     16.4886E-03     14.7485E-03
            2393             301     9.26271E-03     8.36473E-03
            2393             302     7.90004E-03     6.87072E-03
            2393            3005     16.4886E-03     14.7485E-03
            2393            3006     18.8025E-03     17.2790E-03
            2394             300     9.96433E-03     9.21410E-03
            2394             301     9.26271E-03     8.36473E-03
            2394            3006     18.8025E-03     17.2790E-03
            2394            3007     19.9886E-03     18.6006E-03
            2395             299     10.3895E-03     9.69067E-03
            2395             300     9.96433E-03     9.21410E-03
            2395            3007     19.9886E-03     18.6006E-03
            2395            3008     20.4925E-03     19.2602E-03
            2396             298     10.5381E-03     9.92616E-03
            2396             299     10.3895E-03     9.69067E-03
            2396            3008     20.4925E-03     19.2602E-03
            2396            3009     20.6269E-03     19.4851E-03
            2397             297     10.5784E-03     10.0128E-03
            2397             298     10.5381E-03     9.92616E-03
            2397            3009     20.6269E-03     19.4851E-03
            2397            3010     20.5130E-03     19.4881E-03
            2398             296     10.5051E-03     10.0021E-03
            2398             297     10.5784E-03     10.0128E-03
            2398            3010     20.5130E-03     19.4881E-03
            2398            3011     20.2877E-03     19.3529E-03
            2399             295     10.3974E-03     9.94532E-03
            2399             296     10.5051E-03     10.0021E-03
            2399            3011     20.2877E-03     19.3529E-03
            2399            3012     19.9880E-03     19.1532E-03
            2400             294     10.2491E-03     9.85205E-03
            2400             295     10.3974E-03     9.94532E-03
            2400            3012     19.9880E-03     19.1532E-03
            2400            3013     19.6611E-03     18.9199E-03
            2401             293     10.0879E-03     9.74360E-03
            2401             294     10.2491E-03     9.85205E-03
            2401            3013     19.6611E-03     18.9199E-03
            2401            3014     19.3161E-03     18.6722E-03
            2402             292     9.91213E-03     9.62231E-03
            2402             293     10.0879E-03     9.74360E-03
            2402            3014     19.3161E-03     18.6722E-03
            2402            3015     18.9648E-03     18.4166E-03
            2403             291     9.71798E-03     9.47986E-03
            2403             292     9.91213E-03     9.62231E-03
            2403            3015     18.9648E-03     18.4166E-03
            2403            3016     18.5966E-03     18.1491E-03
            2404             290     9.50802E-03     9.32424E-03
            2404             291     9.71798E-03     9.47986E-03
            2404            3016     18.5966E-03     18.1491E-03
            2404            3017     18.2049E-03     17.8541E-03
            2405             289     9.25416E-03     9.11835E-03
            2405             290     9.50802E-03     9.32424E-03
            2405            3017     18.2049E-03     17.8541E-03
            2405            3018     17.7510E-03     17.5105E-03
            2406             288     8.96816E-03     8.88820E-03
            2406             289     9.25416E-03     9.11835E-03
            2406            3018     17.7510E-03     17.5105E-03
            2406            3019     17.2192E-03     17.1018E-03
            2407             287     8.58937E-03     8.56347E-03
            2407             288     8.96816E-03     8.88820E-03
            2407            3019     17.2192E-03     17.1018E-03
            2407            3020     16.5083E-03     16.5579E-03
            2408             286     8.21638E-03     8.29451E-03
            2408             287     8.58937E-03     8.56347E-03
            2408            3020     16.5083E-03     16.5579E-03
            2408            3021     15.6536E-03     16.0757E-03
            2409             285     7.74528E-03     7.92292E-03
            2409             286     8.21638E-03     8.29451E-03
            2409            3021     15.6536E-03     16.0757E-03
            2409            3022     14.2633E-03     14.8963E-03
            2410              16     5.26488E-03     6.72304E-03
            2410             285     7.74528E-03     7.92292E-03
            2410             454     10.3606E-03     11.9061E-03
            2410            3022     14.2633E-03     14.8963E-03
            2411             671     13.5854E-03     13.3547E-03
            2411             672     12.2693E-03     10.3789E-03
            2411            3005     16.4886E-03     14.7485E-03
            2411            3023     18.4454E-03     17.6331E-03
            2412            3005     16.4886E-03     14.7485E-03
            2412            3006     18.8025E-03     17.2790E-03
            2412            3023     18.4454E-03     17.6331E-03
            2412            3024     20.3365E-03     19.4889E-03
            2413            3006     18.8025E-03     17.2790E-03
            2413            3007     19.9886E-03     18.6006E-03
            2413            3024     20.3365E-03     19.4889E-03
            2413            3025     21.0581E-03     20.2264E-03
            2414            3007     19.9886E-03     18.6006E-03
            2414            3008     20.4925E-03     19.2602E-03
            2414            3025     21.0581E-03     20.2264E-03
            2414            3026     21.0995E-03     20.3045E-03
            2415            3008     20.4925E-03     19.2602E-03
            2415            3009     20.6269E-03     19.4851E-03
            2415            3026     21.0995E-03     20.3045E-03
            2415            3027     20.8253E-03     20.0996E-03
            2416            3009     20.6269E-03     19.4851E-03
            2416            3010     20.5130E-03     19.4881E-03
            2416            3027     20.8253E-03     20.0996E-03
            2416            3028     20.4357E-03     19.7673E-03
            2417            3010     20.5130E-03     19.4881E-03
            2417            3011     20.2877E-03     19.3529E-03
            2417            3028     20.4357E-03     19.7673E-03
            2417            3029     20.0031E-03     19.3989E-03
            2418            3011     20.2877E-03     19.3529E-03
            2418            3012     19.9880E-03     19.1532E-03
            2418            3029     20.0031E-03     19.3989E-03
            2418            3030     19.5781E-03     19.0337E-03
            2419            3012     19.9880E-03     19.1532E-03
            2419            3013     19.6611E-03     18.9199E-03
            2419            3030     19.5781E-03     19.0337E-03
            2419            3031     19.1737E-03     18.6912E-03
            2420            3013     19.6611E-03     18.9199E-03
            2420            3014     19.3161E-03     18.6722E-03
            2420            3031     19.1737E-03     18.6912E-03
            2420            3032     18.8001E-03     18.3801E-03
            2421            3014     19.3161E-03     18.6722E-03
            2421            3015     18.9648E-03     18.4166E-03
            2421            3032     18.8001E-03     18.3801E-03
            2421            3033     18.4546E-03     18.0990E-03
            2422            3015     18.9648E-03     18.4166E-03
            2422            3016     18.5966E-03     18.1491E-03
            2422            3033     18.4546E-03     18.0990E-03
            2422            3034     18.1327E-03     17.8460E-03
            2423            3016     18.5966E-03     18.1491E-03
            2423            3017     18.2049E-03     17.8541E-03
            2423            3034     18.1327E-03     17.8460E-03
            2423            3035     17.8146E-03     17.6012E-03
            2424            3017     18.2049E-03     17.8541E-03
            2424            3018     17.7510E-03     17.5105E-03
            2424            3035     17.8146E-03     17.6012E-03
            2424            3036     17.4646E-03     17.3394E-03
            2425            3018     17.7510E-03     17.5105E-03
            2425            3019     17.2192E-03     17.1018E-03
            2425            3036     17.4646E-03     17.3394E-03
            2425            3037     17.0154E-03     16.9868E-03
            2426            3019     17.2192E-03     17.1018E-03
            2426            3020     16.5083E-03     16.5579E-03
            2426            3037     17.0154E-03     16.9868E-03
            2426            3038     16.3617E-03     16.5232E-03
            2427            3020     16.5083E-03     16.5579E-03
            2427            3021     15.6536E-03     16.0757E-03
            2427            3038     16.3617E-03     16.5232E-03
            2427            3039     15.3238E-03     15.5980E-03
            2428            3021     15.6536E-03     16.0757E-03
            2428            3022     14.2633E-03     14.8963E-03
            2428            3039     15.3238E-03     15.5980E-03
            2428            3040     13.3500E-03     13.3245E-03
            2429             453     10.3576E-03     9.74449E-03
            2429             454     10.3606E-03     11.9061E-03
            2429            3022     14.2633E-03     14.8963E-03
            2429            3040     13.3500E-03     13.3245E-03
            2430             670     15.6702E-03     16.1733E-03
            2430             671     13.5854E-03     13.3547E-03
            2430            3023     18.4454E-03     17.6331E-03
            2430            3041     19.5426E-03     19.7140E-03
            2431            3023     18.4454E-03     17.6331E-03
            2431            3024     20.3365E-03     19.4889E-03
            2431            3041     19.5426E-03     19.7140E-03
            2431            3042     21.3856E-03     21.2150E-03
            2432            3024     20.3365E-03     19.4889E-03
            2432            3025     21.0581E-03     20.2264E-03
            2432            3042     21.3856E-03     21.2150E-03
            2432            3043     21.7364E-03     21.4654E-03
            2433            3025     21.0581E-03     20.2264E-03
            2433            3026     21.0995E-03     20.3045E-03
            2433            3043     21.7364E-03     21.4654E-03
            2433            3044     21.4435E-03     21.1362E-03
            2434            3026     21.0995E-03     20.3045E-03
            2434            3027     20.8253E-03     20.0996E-03
            2434            3044     21.4435E-03     21.1362E-03
            2434            3045     20.8934E-03     20.6058E-03
            2435            3027     20.8253E-03     20.0996E-03
            2435            3028     20.4357E-03     19.7673E-03
            2435            3045     20.8934E-03     20.6058E-03
            2435            3046     20.2927E-03     20.0166E-03
            2436            3028     20.4357E-03     19.7673E-03
            2436            3029     20.0031E-03     19.3989E-03
            2436            3046     20.2927E-03     20.0166E-03
            2436            3047     19.7072E-03     19.4583E-03
            2437            3029     20.0031E-03     19.3989E-03
            2437            3030     19.5781E-03     19.0337E-03
            2437            3047     19.7072E-03     19.4583E-03
            2437            3048     19.1815E-03     18.9531E-03
            2438            3030     19.5781E-03     19.0337E-03
            2438            3031     19.1737E-03     18.6912E-03
            2438            3048     19.1815E-03     18.9531E-03
            2438            3049     18.7177E-03     18.5153E-03
            2439            3031     19.1737E-03     18.6912E-03
            2439            3032     18.8001E-03     18.3801E-03
            2439            3049     18.7177E-03     18.5153E-03
            2439            3050     18.3218E-03     18.1431E-03
            2440            3032     18.8001E-03     18.3801E-03
            2440            3033     18.4546E-03     18.0990E-03
            2440            3050     18.3218E-03     18.1431E-03
            2440            3051     17.9883E-03     17.8388E-03
            2441            3033     18.4546E-03     18.0990E-03
            2441            3034     18.1327E-03     17.8460E-03
            2441            3051     17.9883E-03     17.8388E-03
            2441            3052     17.7091E-03     17.5877E-03
            2442            3034     18.1327E-03     17.8460E-03
            2442            3035     17.8146E-03     17.6012E-03
            2442            3052     17.7091E-03     17.5877E-03
            2442            3053     17.4604E-03     17.3775E-03
            2443            3035     17.8146E-03     17.6012E-03
            2443            3036     17.4646E-03     17.3394E-03
            2443            3053     17.4604E-03     17.3775E-03
            2443            3054     17.1999E-03     17.1481E-03
            2444            3036     17.4646E-03     17.3394E-03
            2444            3037     17.0154E-03     16.9868E-03
            2444            3054     17.1999E-03     17.1481E-03
            2444            3055     16.8108E-03     16.7819E-03
            2445            3037     17.0154E-03     16.9868E-03
            2445            3038     16.3617E-03     16.5232E-03
            2445            3055     16.8108E-03     16.7819E-03
            2445            3056     16.1560E-03     16.0811E-03
            2446            3038     16.3617E-03     16.5232E-03
            2446            3039     15.3238E-03     15.5980E-03
            2446            3056     16.1560E-03     16.0811E-03
            2446            3057     14.9213E-03     14.5115E-03
            2447            3039     15.3238E-03     15.5980E-03
            2447            3040     13.3500E-03     13.3245E-03
            2447            3057     14.9213E-03     14.5115E-03
            2447            3058     12.7716E-03     11.8647E-03
            2448             452     9.77959E-03     8.73884E-03
            2448             453     10.3576E-03     9.74449E-03
            2448            3040     13.3500E-03     13.3245E-03
            2448            3058     12.7716E-03     11.8647E-03
            2449             669     19.0576E-03     19.7079E-03
            2449             670     15.6702E-03     16.1733E-03
            2449            3041     19.5426E-03     19.7140E-03
            2449            3059     20.9044E-03     21.5490E-03
            2450            3041     19.5426E-03     19.7140E-03
            2450            3042     21.3856E-03     21.2150E-03
            2450            3059     20.9044E-03     21.5490E-03
            2450            3060     21.9506E-03     22.3087E-03
            2451            3042     21.3856E-03     21.2150E-03
            2451            3043     21.7364E-03     21.4654E-03
            2451            3060     21.9506E-03     22.3087E-03
            2451            3061     21.8697E-03     22.0885E-03
            2452            3043     21.7364E-03     21.4654E-03
            2452            3044     21.4435E-03     21.1362E-03
            2452            3061     21.8697E-03     22.0885E-03
            2452            3062     21.3351E-03     21.5221E-03
            2453            3044     21.4435E-03     21.1362E-03
            2453            3045     20.8934E-03     20.6058E-03
            2453            3062     21.3351E-03     21.5221E-03
            2453            3063     20.6552E-03     20.7915E-03
            2454            3045     20.8934E-03     20.6058E-03
            2454            3046     20.2927E-03     20.0166E-03
            2454            3063     20.6552E-03     20.7915E-03
            2454            3064     19.9394E-03     20.0741E-03
            2455            3046     20.2927E-03     20.0166E-03
            2455            3047     19.7072E-03     19.4583E-03
            2455            3064     19.9394E-03     20.0741E-03
            2455            3065     19.2930E-03     19.4059E-03
            2456            3047     19.7072E-03     19.4583E-03
            2456            3048     19.1815E-03     18.9531E-03
            2456            3065     19.2930E-03     19.4059E-03
            2456            3066     18.7128E-03     18.8186E-03
            2457            3048     19.1815E-03     18.9531E-03
            2457            3049     18.7177E-03     18.5153E-03
            2457            3066     18.7128E-03     18.8186E-03
            2457            3067     18.2239E-03     18.3144E-03
            2458            3049     18.7177E-03     18.5153E-03
            2458            3050     18.3218E-03     18.1431E-03
            2458            3067     18.2239E-03     18.3144E-03
            2458            3068     17.8166E-03     17.8965E-03
            2459            3050     18.3218E-03     18.1431E-03
            2459            3051     17.9883E-03     17.8388E-03
            2459            3068     17.8166E-03     17.8965E-03
            2459            3069     17.4928E-03     17.5574E-03
            2460            3051     17.9883E-03     17.8388E-03
            2460            3052     17.7091E-03     17.5877E-03
            2460            3069     17.4928E-03     17.5574E-03
            2460            3070     17.2406E-03     17.2959E-03
            2461            3052     17.7091E-03     17.5877E-03
            2461            3053     17.4604E-03     17.3775E-03
            2461            3070     17.2406E-03     17.2959E-03
            2461            3071     17.0392E-03     17.0756E-03
            2462            3053     17.4604E-03     17.3775E-03
            2462            3054     17.1999E-03     17.1481E-03
            2462            3071     17.0392E-03     17.0756E-03
            2462            3072     16.8316E-03     16.8448E-03
            2463            3054     17.1999E-03     17.1481E-03
            2463            3055     16.8108E-03     16.7819E-03
            2463            3072     16.8316E-03     16.8448E-03
            2463            3073     16.5252E-03     16.4669E-03
            2464            3055     16.8108E-03     16.7819E-03
            2464            3056     16.1560E-03     16.0811E-03
            2464            3073     16.5252E-03     16.4669E-03
            2464            3074     15.8582E-03     15.5319E-03
            2465            3056     16.1560E-03     16.0811E-03
            2465            3057     14.9213E-03     14.5115E-03
            2465            3074     15.8582E-03     15.5319E-03
            2465            3075     14.5575E-03     13.8611E-03
            2466            3057     14.9213E-03     14.5115E-03
            2466            3058     12.7716E-03     11.8647E-03
            2466            3075     14.5575E-03     13.8611E-03
            2466            3076     12.4512E-03     11.5207E-03
            2467             451     9.74417E-03     8.89002E-03
            2467             452     9.77959E-03     8.73884E-03
            2467            3058     12.7716E-03     11.8647E-03
            2467            3076     12.4512E-03     11.5207E-03
            2468             668     22.9164E-03     23.5752E-03
            2468             669     19.0576E-03     19.7079E-03
            2468            3059     20.9044E-03     21.5490E-03
            2468            3077     22.4980E-03     23.1984E-03
            2469            3059     20.9044E-03     21.5490E-03
            2469            3060     21.9506E-03     22.3087E-03
            2469            3077     22.4980E-03     23.1984E-03
            2469            3078     21.9587E-03     22.7108E-03
            2470            3060     21.9506E-03     22.3087E-03
            2470            3061     21.8697E-03     22.0885E-03
            2470            3078     21.9587E-03     22.7108E-03
            2470            3079     21.4441E-03     22.1554E-03
            2471            3061     21.8697E-03     22.0885E-03
            2471            3062     21.3351E-03     21.5221E-03
            2471            3079     21.4441E-03     22.1554E-03
            2471            3080     20.7860E-03     21.3988E-03
            2472            3062     21.3351E-03     21.5221E-03
            2472            3063     20.6552E-03     20.7915E-03
            2472            3080     20.7860E-03     21.3988E-03
            2472            3081     20.0448E-03     20.6320E-03
            2473            3063     20.6552E-03     20.7915E-03
            2473            3064     19.9394E-03     20.0741E-03
            2473            3081     20.0448E-03     20.6320E-03
            2473            3082     19.3554E-03     19.8818E-03
            2474            3064     19.9394E-03     20.0741E-03
            2474            3065     19.2930E-03     19.4059E-03
            2474            3082     19.3554E-03     19.8818E-03
            2474            3083     18.7022E-03     19.1948E-03
            2475            3065     19.2930E-03     19.4059E-03
            2475            3066     18.7128E-03     18.8186E-03
            2475            3083     18.7022E-03     19.1948E-03
            2475            3084     18.1362E-03     18.5801E-03
            2476            3066     18.7128E-03     18.8186E-03
            2476            3067     18.2239E-03     18.3144E-03
            2476            3084     18.1362E-03     18.5801E-03
            2476            3085     17.6439E-03     18.0440E-03
            2477            3067     18.2239E-03     18.3144E-03
            2477            3068     17.8166E-03     17.8965E-03
            2477            3085     17.6439E-03     18.0440E-03
            2477            3086     17.2397E-03     17.5884E-03
            2478            3068     17.8166E-03     17.8965E-03
            2478            3069     17.4928E-03     17.5574E-03
            2478            3086     17.2397E-03     17.5884E-03
            2478            3087     16.9167E-03     17.2136E-03
            2479            3069     17.4928E-03     17.5574E-03
            2479            3070     17.2406E-03     17.2959E-03
            2479            3087     16.9167E-03     17.2136E-03
            2479            3088     16.6697E-03     16.9061E-03
            2480            3070     17.2406E-03     17.2959E-03
            2480            3071     17.0392E-03     17.0756E-03
            2480            3088     16.6697E-03     16.9061E-03
            2480            3089     16.4809E-03     16.6537E-03
            2481            3071     17.0392E-03     17.0756E-03
            2481            3072     16.8316E-03     16.8448E-03
            2481            3089     16.4809E-03     16.6537E-03
            2481            3090     16.3026E-03     16.3881E-03
            2482            3072     16.8316E-03     16.8448E-03
            2482            3073     16.5252E-03     16.4669E-03
            2482            3090     16.3026E-03     16.3881E-03
            2482            3091     16.0558E-03     16.0040E-03
            2483            3073     16.5252E-03     16.4669E-03
            2483            3074     15.8582E-03     15.5319E-03
            2483            3091     16.0558E-03     16.0040E-03
            2483            3092     15.5642E-03     15.3107E-03
            2484            3074     15.8582E-03     15.5319E-03
            2484            3075     14.5575E-03     13.8611E-03
            2484            3092     15.5642E-03     15.3107E-03
            2484            3093     14.4591E-03     13.8368E-03
            2485            3075     14.5575E-03     13.8611E-03
            2485            3076     12.4512E-03     11.5207E-03
            2485            3093     14.4591E-03     13.8368E-03
            2485            3094     12.6129E-03     11.5102E-03
            2486             450     10.0230E-03     9.14045E-03
            2486             451     9.74417E-03     8.89002E-03
            2486            3076     12.4512E-03     11.5207E-03
            2486            3094     12.6129E-03     11.5102E-03
            2487             667     26.0801E-03     26.7270E-03
            2487             668     22.9164E-03     23.5752E-03
            2487            3077     22.4980E-03     23.1984E-03
            2487            3095     22.8505E-03     23.9630E-03
            2488            3077     22.4980E-03     23.1984E-03
            2488            3078     21.9587E-03     22.7108E-03
            2488            3095     22.8505E-03     23.9630E-03
            2488            3096     21.4185E-03     22.6334E-03
            2489            3078     21.9587E-03     22.7108E-03
            2489            3079     21.4441E-03     22.1554E-03
            2489            3096     21.4185E-03     22.6334E-03
            2489            3097     20.5768E-03     21.7216E-03
            2490            3079     21.4441E-03     22.1554E-03
            2490            3080     20.7860E-03     21.3988E-03
            2490            3097     20.5768E-03     21.7216E-03
            2490            3098     19.8423E-03     20.9315E-03
            2491            3080     20.7860E-03     21.3988E-03
            2491            3081     20.0448E-03     20.6320E-03
            2491            3098     19.8423E-03     20.9315E-03
            2491            3099     19.1929E-03     20.2002E-03
            2492            3081     20.0448E-03     20.6320E-03
            2492            3082     19.3554E-03     19.8818E-03
            2492            3099     19.1929E-03     20.2002E-03
            2492            3100     18.5580E-03     19.5018E-03
            2493            3082     19.3554E-03     19.8818E-03
            2493            3083     18.7022E-03     19.1948E-03
            2493            3100     18.5580E-03     19.5018E-03
            2493            3101     17.9797E-03     18.8505E-03
            2494            3083     18.7022E-03     19.1948E-03
            2494            3084     18.1362E-03     18.5801E-03
            2494            3101     17.9797E-03     18.8505E-03
            2494            3102     17.4454E-03     18.2446E-03
            2495            3084     18.1362E-03     18.5801E-03
            2495            3085     17.6439E-03     18.0440E-03
            2495            3102     17.4454E-03     18.2446E-03
            2495            3103     16.9786E-03     17.6989E-03
            2496            3085     17.6439E-03     18.0440E-03
            2496            3086     17.2397E-03     17.5884E-03
            2496            3103     16.9786E-03     17.6989E-03
            2496            3104     16.5774E-03     17.2124E-03
            2497            3086     17.2397E-03     17.5884E-03
            2497            3087     16.9167E-03     17.2136E-03
            2497            3104     16.5774E-03     17.2124E-03
            2497            3105     16.2473E-03     16.7891E-03
            2498            3087     16.9167E-03     17.2136E-03
            2498            3088     16.6697E-03     16.9061E-03
            2498            3105     16.2473E-03     16.7891E-03
            2498            3106     15.9843E-03     16.4229E-03
            2499            3088     16.6697E-03     16.9061E-03
            2499            3089     16.4809E-03     16.6537E-03
            2499            3106     15.9843E-03     16.4229E-03
            2499            3107     15.7699E-03     16.0913E-03
            2500            3089     16.4809E-03     16.6537E-03
            2500            3090     16.3026E-03     16.3881E-03
            2500            3107     15.7699E-03     16.0913E-03
            2500            3108     15.5909E-03     15.7754E-03
            2501            3090     16.3026E-03     16.3881E-03
            2501            3091     16.0558E-03     16.0040E-03
            2501            3108     15.5909E-03     15.7754E-03
            2501            3109     15.3707E-03     15.3889E-03
            2502            3091     16.0558E-03     16.0040E-03
            2502            3092     15.5642E-03     15.3107E-03
            2502            3109     15.3707E-03     15.3889E-03
            2502            3110     15.1128E-03     14.9790E-03
            2503            3092     15.5642E-03     15.3107E-03
            2503            3093     14.4591E-03     13.8368E-03
            2503            3110     15.1128E-03     14.9790E-03
            2503            3111     14.6389E-03     14.3074E-03
            2504            3093     14.4591E-03     13.8368E-03
            2504            3094     12.6129E-03     11.5102E-03
            2504            3111     14.6389E-03     14.3074E-03
            2504            3112     13.2416E-03     12.6719E-03
            2505             449     10.9376E-03     10.3807E-03
            2505             450     10.0230E-03     9.14045E-03
            2505            3094     12.6129E-03     11.5102E-03
            2505            3112     13.2416E-03     12.6719E-03
            2506             666     26.0977E-03     28.0963E-03
            2506             667     26.0801E-03     26.7270E-03
            2506            3095     22.8505E-03     23.9630E-03
            2506            3113     22.1130E-03     24.0232E-03
            2507            3095     22.8505E-03     23.9630E-03
            2507            3096     21.4185E-03     22.6334E-03
            2507            3113     22.1130E-03     24.0232E-03
            2507            3114     20.4588E-03     22.2334E-03
            2508            3096     21.4185E-03     22.6334E-03
            2508            3097     20.5768E-03     21.7216E-03
            2508            3114     20.4588E-03     22.2334E-03
            2508            3115     19.4533E-03     21.1098E-03
            2509            3097     20.5768E-03     21.7216E-03
            2509            3098     19.8423E-03     20.9315E-03
            2509            3115     19.4533E-03     21.1098E-03
            2509            3116     18.7965E-03     20.3632E-03
            2510            3098     19.8423E-03     20.9315E-03
            2510            3099     19.1929E-03     20.2002E-03
            2510            3116     18.7965E-03     20.3632E-03
            2510            3117     18.2258E-03     19.6851E-03
            2511            3099     19.1929E-03     20.2002E-03
            2511            3100     18.5580E-03     19.5018E-03
            2511            3117     18.2258E-03     19.6851E-03
            2511            3118     17.6912E-03     19.0622E-03
            2512            3100     18.5580E-03     19.5018E-03
            2512            3101     17.9797E-03     18.8505E-03
            2512            3118     17.6912E-03     19.0622E-03
            2512            3119     17.1745E-03     18.4443E-03
            2513            3101     17.9797E-03     18.8505E-03
            2513            3102     17.4454E-03     18.2446E-03
            2513            3119     17.1745E-03     18.4443E-03
            2513            3120     16.6891E-03     17.8594E-03
            2514            3102     17.4454E-03     18.2446E-03
            2514            3103     16.9786E-03     17.6989E-03
            2514            3120     16.6891E-03     17.8594E-03
            2514            3121     16.2429E-03     17.3003E-03
            2515            3103     16.9786E-03     17.6989E-03
            2515            3104     16.5774E-03     17.2124E-03
            2515            3121     16.2429E-03     17.3003E-03
            2515            3122     15.8473E-03     16.7856E-03
            2516            3104     16.5774E-03     17.2124E-03
            2516            3105     16.2473E-03     16.7891E-03
            2516            3122     15.8473E-03     16.7856E-03
            2516            3123     15.5051E-03     16.3080E-03
            2517            3105     16.2473E-03     16.7891E-03
            2517            3106     15.9843E-03     16.4229E-03
            2517            3123     15.5051E-03     16.3080E-03
            2517            3124     15.2096E-03     15.8677E-03
            2518            3106     15.9843E-03     16.4229E-03
            2518            3107     15.7699E-03     16.0913E-03
            2518            3124     15.2096E-03     15.8677E-03
            2518            3125     14.9583E-03     15.4458E-03
            2519            3107     15.7699E-03     16.0913E-03
            2519            3108     15.5909E-03     15.7754E-03
            2519            3125     14.9583E-03     15.4458E-03
            2519            3126     14.7199E-03     15.0207E-03
            2520            3108     15.5909E-03     15.7754E-03
            2520            3109     15.3707E-03     15.3889E-03
            2520            3126     14.7199E-03     15.0207E-03
            2520            3127     14.5245E-03     14.6088E-03
            2521            3109     15.3707E-03     15.3889E-03
            2521            3110     15.1128E-03     14.9790E-03
            2521            3127     14.5245E-03     14.6088E-03
            2521            3128     14.3227E-03     14.1627E-03
            2522            3110     15.1128E-03     14.9790E-03
            2522            3111     14.6389E-03     14.3074E-03
            2522            3128     14.3227E-03     14.1627E-03
            2522            3129     14.4828E-03     14.1307E-03
            2523            3111     14.6389E-03     14.3074E-03
            2523            3112     13.2416E-03     12.6719E-03
            2523            3129     14.4828E-03     14.1307E-03
            2523            3130     14.7525E-03     14.1066E-03
            2524             448     12.5395E-03     13.0905E-03
            2524             449     10.9376E-03     10.3807E-03
            2524            3112     13.2416E-03     12.6719E-03
            2524            3130     14.7525E-03     14.1066E-03
            2525             665     32.0367E-03     32.0138E-03
            2525             666     26.0977E-03     28.0963E-03
            2525            3113     22.1130E-03     24.0232E-03
            2525            3131     31.1493E-03     31.0608E-03
            2526            3113     22.1130E-03     24.0232E-03
            2526            3114     20.4588E-03     22.2334E-03
            2526            3131     31.1493E-03     31.0608E-03
            2526            3132     30.4964E-03     30.4922E-03
            2527            3114     20.4588E-03     22.2334E-03
            2527            3115     19.4533E-03     21.1098E-03
            2527            3132     30.4964E-03     30.4922E-03
            2527            3133     29.8350E-03     29.9127E-03
            2528            3115     19.4533E-03     21.1098E-03
            2528            3116     18.7965E-03     20.3632E-03
            2528            3133     29.8350E-03     29.9127E-03
            2528            3134     29.0776E-03     29.2015E-03
            2529            3116     18.7965E-03     20.3632E-03
            2529            3117     18.2258E-03     19.6851E-03
            2529            3134     29.0776E-03     29.2015E-03
            2529            3135     28.1519E-03     28.3249E-03
            2530            3117     18.2258E-03     19.6851E-03
            2530            3118     17.6912E-03     19.0622E-03
            2530            3135     28.1519E-03     28.3249E-03
            2530            3136     27.1246E-03     27.3066E-03
            2531            3118     17.6912E-03     19.0622E-03
            2531            3119     17.1745E-03     18.4443E-03
            2531            3136     27.1246E-03     27.3066E-03
            2531            3137     25.9974E-03     26.1911E-03
            2532            3119     17.1745E-03     18.4443E-03
            2532            3120     16.6891E-03     17.8594E-03
            2532            3137     25.9974E-03     26.1911E-03
            2532            3138     24.8399E-03     25.0234E-03
            2533            3120     16.6891E-03     17.8594E-03
            2533            3121     16.2429E-03     17.3003E-03
            2533            3138     24.8399E-03     25.0234E-03
            2533            3139     23.6706E-03     23.8410E-03
            2534            3121     16.2429E-03     17.3003E-03
            2534            3122     15.8473E-03     16.7856E-03
            2534            3139     23.6706E-03     23.8410E-03
            2534            3140     22.5255E-03     22.6724E-03
            2535            3122     15.8473E-03     16.7856E-03
            2535            3123     15.5051E-03     16.3080E-03
            2535            3140     22.5255E-03     22.6724E-03
            2535            3141     21.4284E-03     21.5487E-03
            2536            3123     15.5051E-03     16.3080E-03
            2536            3124     15.2096E-03     15.8677E-03
            2536            3141     21.4284E-03     21.5487E-03
            2536            3142     20.3815E-03     20.4658E-03
            2537            3124     15.2096E-03     15.8677E-03
            2537            3125     14.9583E-03     15.4458E-03
            2537            3142     20.3815E-03     20.4658E-03
            2537            3143     19.4112E-03     19.4610E-03
            2538            3125     14.9583E-03     15.4458E-03
            2538            3126     14.7199E-03     15.0207E-03
            2538            3143     19.4112E-03     19.4610E-03
            2538            3144     18.4874E-03     18.4898E-03
            2539            3126     14.7199E-03     15.0207E-03
            2539            3127     14.5245E-03     14.6088E-03
            2539            3144     18.4874E-03     18.4898E-03
            2539            3145     17.6515E-03     17.6325E-03
            2540            3127     14.5245E-03     14.6088E-03
            2540            3128     14.3227E-03     14.1627E-03
            2540            3145     17.6515E-03     17.6325E-03
            2540            3146     16.8263E-03     16.7965E-03
            2541            3128     14.3227E-03     14.1627E-03
            2541            3129     14.4828E-03     14.1307E-03
            2541            3146     16.8263E-03     16.7965E-03
            2541            3147     16.2045E-03     16.3550E-03
            2542            3129     14.4828E-03     14.1307E-03
            2542            3130     14.7525E-03     14.1066E-03
            2542            3147     16.2045E-03     16.3550E-03
            2542            3148     15.7250E-03     16.5178E-03
            2543             447     13.2861E-03     15.7216E-03
            2543             448     12.5395E-03     13.0905E-03
            2543            3130     14.7525E-03     14.1066E-03
            2543            3148     15.7250E-03     16.5178E-03
            2544             664     40.3304E-03     38.5291E-03
            2544             665     32.0367E-03     32.0138E-03
            2544            3131     31.1493E-03     31.0608E-03
            2544            3149     42.2472E-03     40.5054E-03
            2545            3131     31.1493E-03     31.0608E-03
            2545            3132     30.4964E-03     30.4922E-03
            2545            3149     42.2472E-03     40.5054E-03
            2545            3150     42.5193E-03     40.9318E-03
            2546            3132     30.4964E-03     30.4922E-03
            2546            3133     29.8350E-03     29.9127E-03
            2546            3150     42.5193E-03     40.9318E-03
            2546            3151     41.8884E-03     40.4766E-03
            2547            3133     29.8350E-03     29.9127E-03
            2547            3134     29.0776E-03     29.2015E-03
            2547            3151     41.8884E-03     40.4766E-03
            2547            3152     40.6637E-03     39.4079E-03
            2548            3134     29.0776E-03     29.2015E-03
            2548            3135     28.1519E-03     28.3249E-03
            2548            3152     40.6637E-03     39.4079E-03
            2548            3153     39.0606E-03     37.9298E-03
            2549            3135     28.1519E-03     28.3249E-03
            2549            3136     27.1246E-03     27.3066E-03
            2549            3153     39.0606E-03     37.9298E-03
            2549            3154     37.2086E-03     36.1961E-03
            2550            3136     27.1246E-03     27.3066E-03
            2550            3137     25.9974E-03     26.1911E-03
            2550            3154     37.2086E-03     36.1961E-03
            2550            3155     35.2232E-03     34.2995E-03
            2551            3137     25.9974E-03     26.1911E-03
            2551            3138     24.8399E-03     25.0234E-03
            2551            3155     35.2232E-03     34.2995E-03
            2551            3156     33.1629E-03     32.3295E-03
            2552            3138     24.8399E-03     25.0234E-03
            2552            3139     23.6706E-03     23.8410E-03
            2552            3156     33.1629E-03     32.3295E-03
            2552            3157     31.0987E-03     30.3416E-03
            2553            3139     23.6706E-03     23.8410E-03
            2553            3140     22.5255E-03     22.6724E-03
            2553            3157     31.0987E-03     30.3416E-03
            2553            3158     29.0649E-03     28.3897E-03
            2554            3140     22.5255E-03     22.6724E-03
            2554            3141     21.4284E-03     21.5487E-03
            2554            3158     29.0649E-03     28.3897E-03
            2554            3159     27.1087E-03     26.5154E-03
            2555            3141     21.4284E-03     21.5487E-03
            2555            3142     20.3815E-03     20.4658E-03
            2555            3159     27.1087E-03     26.5154E-03
            2555            3160     25.2557E-03     24.7604E-03
            2556            3142     20.3815E-03     20.4658E-03
            2556            3143     19.4112E-03     19.4610E-03
            2556            3160     25.2557E-03     24.7604E-03
            2556            3161     23.5371E-03     23.1561E-03
            2557            3143     19.4112E-03     19.4610E-03
            2557            3144     18.4874E-03     18.4898E-03
            2557            3161     23.5371E-03     23.1561E-03
            2557            3162     21.9548E-03     21.7386E-03
            2558            3144     18.4874E-03     18.4898E-03
            2558            3145     17.6515E-03     17.6325E-03
            2558            3162     21.9548E-03     21.7386E-03
            2558            3163     20.5100E-03     20.5329E-03
            2559            3145     17.6515E-03     17.6325E-03
            2559            3146     16.8263E-03     16.7965E-03
            2559            3163     20.5100E-03     20.5329E-03
            2559            3164     19.1067E-03     19.5346E-03
            2560            3146     16.8263E-03     16.7965E-03
            2560            3147     16.2045E-03     16.3550E-03
            2560            3164     19.1067E-03     19.5346E-03
            2560            3165     17.6037E-03     18.8910E-03
            2561            3147     16.2045E-03     16.3550E-03
            2561            3148     15.7250E-03     16.5178E-03
            2561            3165     17.6037E-03     18.8910E-03
            2561            3166     15.8295E-03     17.9834E-03
            2562             446     13.6318E-03     16.1386E-03
            2562             447     13.2861E-03     15.7216E-03
            2562            3148     15.7250E-03     16.5178E-03
            2562            3166     15.8295E-03     17.9834E-03
            2563             663     43.4913E-03     43.5780E-03
            2563             664     40.3304E-03     38.5291E-03
            2563            3149     42.2472E-03     40.5054E-03
            2563            3167     45.1872E-03     44.8074E-03
            2564            3149     42.2472E-03     40.5054E-03
            2564            3150     42.5193E-03     40.9318E-03
            2564            3167     45.1872E-03     44.8074E-03
            2564            3168     45.0453E-03     44.4796E-03
            2565            3150     42.5193E-03     40.9318E-03
            2565            3151     41.8884E-03     40.4766E-03
            2565            3168     45.0453E-03     44.4796E-03
            2565            3169     43.9164E-03     43.2721E-03
            2566            3151     41.8884E-03     40.4766E-03
            2566            3152     40.6637E-03     39.4079E-03
            2566            3169     43.9164E-03     43.2721E-03
            2566            3170     42.1394E-03     41.4869E-03
            2567            3152     40.6637E-03     39.4079E-03
            2567            3153     39.0606E-03     37.9298E-03
            2567            3170     42.1394E-03     41.4869E-03
            2567            3171     39.9937E-03     39.3746E-03
            2568            3153     39.0606E-03     37.9298E-03
            2568            3154     37.2086E-03     36.1961E-03
            2568            3171     39.9937E-03     39.3746E-03
            2568            3172     37.6607E-03     37.0733E-03
            2569            3154     37.2086E-03     36.1961E-03
            2569            3155     35.2232E-03     34.2995E-03
            2569            3172     37.6607E-03     37.0733E-03
            2569            3173     35.2354E-03     34.6966E-03
            2570            3155     35.2232E-03     34.2995E-03
            2570            3156     33.1629E-03     32.3295E-03
            2570            3173     35.2354E-03     34.6966E-03
            2570            3174     32.8119E-03     32.3123E-03
            2571            3156     33.1629E-03     32.3295E-03
            2571            3157     31.0987E-03     30.3416E-03
            2571            3174     32.8119E-03     32.3123E-03
            2571            3175     30.4290E-03     29.9757E-03
            2572            3157     31.0987E-03     30.3416E-03
            2572            3158     29.0649E-03     28.3897E-03
            2572            3175     30.4290E-03     29.9757E-03
            2572            3176     28.1410E-03     27.7334E-03
            2573            3158     29.0649E-03     28.3897E-03
            2573            3159     27.1087E-03     26.5154E-03
            2573            3176     28.1410E-03     27.7334E-03
            2573            3177     25.9786E-03     25.6279E-03
            2574            3159     27.1087E-03     26.5154E-03
            2574            3160     25.2557E-03     24.7604E-03
            2574            3177     25.9786E-03     25.6279E-03
            2574            3178     23.9799E-03     23.7042E-03
            2575            3160     25.2557E-03     24.7604E-03
            2575            3161     23.5371E-03     23.1561E-03
            2575            3178     23.9799E-03     23.7042E-03
            2575            3179     22.1764E-03     22.0082E-03
            2576            3161     23.5371E-03     23.1561E-03
            2576            3162     21.9548E-03     21.7386E-03
            2576            3179     22.1764E-03     22.0082E-03
            2576            3180     20.5758E-03     20.5830E-03
            2577            3162     21.9548E-03     21.7386E-03
            2577            3163     20.5100E-03     20.5329E-03
            2577            3180     20.5758E-03     20.5830E-03
            2577            3181     19.1850E-03     19.4356E-03
            2578            3163     20.5100E-03     20.5329E-03
            2578            3164     19.1067E-03     19.5346E-03
            2578            3181     19.1850E-03     19.4356E-03
            2578            3182     17.9086E-03     18.5952E-03
            2579            3164     19.1067E-03     19.5346E-03
            2579            3165     17.6037E-03     18.8910E-03
            2579            3182     17.9086E-03     18.5952E-03
            2579            3183     16.7663E-03     17.7550E-03
            2580            3165     17.6037E-03     18.8910E-03
            2580            3166     15.8295E-03     17.9834E-03
            2580            3183     16.7663E-03     17.7550E-03
            2580            3184     15.6183E-03     15.9192E-03
            2581             445     13.7152E-03     13.9452E-03
            2581             446     13.6318E-03     16.1386E-03
            2581            3166     15.8295E-03     17.9834E-03
            2581            3184     15.6183E-03     15.9192E-03
            2582             662     47.3944E-03     48.1716E-03
            2582             663     43.4913E-03     43.5780E-03
            2582            3167     45.1872E-03     44.8074E-03
            2582            3185     47.7141E-03     48.3177E-03
            2583            3167     45.1872E-03     44.8074E-03
            2583            3168     45.0453E-03     44.4796E-03
            2583            3185     47.7141E-03     48.3177E-03
            2583            3186     47.1321E-03     47.4054E-03
            2584            3168     45.0453E-03     44.4796E-03
            2584            3169     43.9164E-03     43.2721E-03
            2584            3186     47.1321E-03     47.4054E-03
            2584            3187     45.5026E-03     45.5855E-03
            2585            3169     43.9164E-03     43.2721E-03
            2585            3170     42.1394E-03     41.4869E-03
            2585            3187     45.5026E-03     45.5855E-03
            2585            3188     43.2802E-03     43.2569E-03
            2586            3170     42.1394E-03     41.4869E-03
            2586            3171     39.9937E-03     39.3746E-03
            2586            3188     43.2802E-03     43.2569E-03
            2586            3189     40.7194E-03     40.6311E-03
            2587            3171     39.9937E-03     39.3746E-03
            2587            3172     37.6607E-03     37.0733E-03
            2587            3189     40.7194E-03     40.6311E-03
            2587            3190     37.9923E-03     37.8861E-03
            2588            3172     37.6607E-03     37.0733E-03
            2588            3173     35.2354E-03     34.6966E-03
            2588            3190     37.9923E-03     37.8861E-03
            2588            3191     35.2377E-03     35.1202E-03
            2589            3173     35.2354E-03     34.6966E-03
            2589            3174     32.8119E-03     32.3123E-03
            2589            3191     35.2377E-03     35.1202E-03
            2589            3192     32.5107E-03     32.3972E-03
            2590            3174     32.8119E-03     32.3123E-03
            2590            3175     30.4290E-03     29.9757E-03
            2590            3192     32.5107E-03     32.3972E-03
            2590            3193     29.8773E-03     29.7702E-03
            2591            3175     30.4290E-03     29.9757E-03
            2591            3176     28.1410E-03     27.7334E-03
            2591            3193     29.8773E-03     29.7702E-03
            2591            3194     27.3703E-03     27.2771E-03
            2592            3176     28.1410E-03     27.7334E-03
            2592            3177     25.9786E-03     25.6279E-03
            2592            3194     27.3703E-03     27.2771E-03
            2592            3195     25.0352E-03     24.9656E-03
            2593            3177     25.9786E-03     25.6279E-03
            2593            3178     23.9799E-03     23.7042E-03
            2593            3195     25.0352E-03     24.9656E-03
            2593            3196     22.9105E-03     22.8793E-03
            2594            3178     23.9799E-03     23.7042E-03
            2594            3179     22.1764E-03     22.0082E-03
            2594            3196     22.9105E-03     22.8793E-03
            2594            3197     21.0244E-03     21.0647E-03
            2595            3179     22.1764E-03     22.0082E-03
            2595            3180     20.5758E-03     20.5830E-03
            2595            3197     21.0244E-03     21.0647E-03
            2595            3198     19.4200E-03     19.5537E-03
            2596            3180     20.5758E-03     20.5830E-03
            2596            3181     19.1850E-03     19.4356E-03
            2596            3198     19.4200E-03     19.5537E-03
            2596            3199     18.0560E-03     18.3302E-03
            2597            3181     19.1850E-03     19.4356E-03
            2597            3182     17.9086E-03     18.5952E-03
            2597            3199     18.0560E-03     18.3302E-03
            2597            3200     16.9506E-03     17.2651E-03
            2598            3182     17.9086E-03     18.5952E-03
            2598            3183     16.7663E-03     17.7550E-03
            2598            3200     16.9506E-03     17.2651E-03
            2598            3201     15.9933E-03     15.8585E-03
            2599            3183     16.7663E-03     17.7550E-03
            2599            3184     15.6183E-03     15.9192E-03
            2599            3201     15.9933E-03     15.8585E-03
            2599            3202     14.6729E-03     13.8982E-03
            2600             444     12.9431E-03     12.5391E-03
            2600             445     13.7152E-03     13.9452E-03
            2600            3184     15.6183E-03     15.9192E-03
            2600            3202     14.6729E-03     13.8982E-03
            2601             661     51.4942E-03     52.4953E-03
            2601             662     47.3944E-03     48.1716E-03
            2601            3185     47.7141E-03     48.3177E-03
            2601            3203     50.3528E-03     51.3649E-03
            2602            3185     47.7141E-03     48.3177E-03
            2602            3186     47.1321E-03     47.4054E-03
            2602            3203     50.3528E-03     51.3649E-03
            2602            3204     48.8004E-03     49.6649E-03
            2603            3186     47.1321E-03     47.4054E-03
            2603            3187     45.5026E-03     45.5855E-03
            2603            3204     48.8004E-03     49.6649E-03
            2603            3205     46.6187E-03     47.2974E-03
            2604            3187     45.5026E-03     45.5855E-03
            2604            3188     43.2802E-03     43.2569E-03
            2604            3205     46.6187E-03     47.2974E-03
            2604            3206     43.9621E-03     44.4838E-03
            2605            3188     43.2802E-03     43.2569E-03
            2605            3189     40.7194E-03     40.6311E-03
            2605            3206     43.9621E-03     44.4838E-03
            2605            3207     41.0397E-03     41.4757E-03
            2606            3189     40.7194E-03     40.6311E-03
            2606            3190     37.9923E-03     37.8861E-03
            2606            3207     41.0397E-03     41.4757E-03
            2606            3208     38.0438E-03     38.4110E-03
            2607            3190     37.9923E-03     37.8861E-03
            2607            3191     35.2377E-03     35.1202E-03
            2607            3208     38.0438E-03     38.4110E-03
            2607            3209     35.0421E-03     35.3669E-03
            2608            3191     35.2377E-03     35.1202E-03
            2608            3192     32.5107E-03     32.3972E-03
            2608            3209     35.0421E-03     35.3669E-03
            2608            3210     32.1140E-03     32.4069E-03
            2609            3192     32.5107E-03     32.3972E-03
            2609            3193     29.8773E-03     29.7702E-03
            2609            3210     32.1140E-03     32.4069E-03
            2609            3211     29.2945E-03     29.5629E-03
            2610            3193     29.8773E-03     29.7702E-03
            2610            3194     27.3703E-03     27.2771E-03
            2610            3211     29.2945E-03     29.5629E-03
            2610            3212     26.6305E-03     26.8803E-03
            2611            3194     27.3703E-03     27.2771E-03
            2611            3195     25.0352E-03     24.9656E-03
            2611            3212     26.6305E-03     26.8803E-03
            2611            3213     24.1594E-03     24.3933E-03
            2612            3195     25.0352E-03     24.9656E-03
            2612            3196     22.9105E-03     22.8793E-03
            2612            3213     24.1594E-03     24.3933E-03
            2612            3214     21.9268E-03     22.1526E-03
            2613            3196     22.9105E-03     22.8793E-03
            2613            3197     21.0244E-03     21.0647E-03
            2613            3214     21.9268E-03     22.1526E-03
            2613            3215     19.9813E-03     20.1968E-03
            2614            3197     21.0244E-03     21.0647E-03
            2614            3198     19.4200E-03     19.5537E-03
            2614            3215     19.9813E-03     20.1968E-03
            2614            3216     18.3318E-03     18.5304E-03
            2615            3198     19.4200E-03     19.5537E-03
            2615            3199     18.0560E-03     18.3302E-03
            2615            3216     18.3318E-03     18.5304E-03
            2615            3217     17.0151E-03     17.1264E-03
            2616            3199     18.0560E-03     18.3302E-03
            2616            3200     16.9506E-03     17.2651E-03
            2616            3217     17.0151E-03     17.1264E-03
            2616            3218     15.9464E-03     15.7464E-03
            2617            3200     16.9506E-03     17.2651E-03
            2617            3201     15.9933E-03     15.8585E-03
            2617            3218     15.9464E-03     15.7464E-03
            2617            3219     14.9114E-03     14.2591E-03
            2618            3201     15.9933E-03     15.8585E-03
            2618            3202     14.6729E-03     13.8982E-03
            2618            3219     14.9114E-03     14.2591E-03
            2618            3220     13.9020E-03     12.8052E-03
            2619             443     12.6623E-03     12.4350E-03
            2619             444     12.9431E-03     12.5391E-03
            2619            3202     14.6729E-03     13.8982E-03
            2619            3220     13.9020E-03     12.8052E-03
            2620             660     55.4730E-03     56.4834E-03
            2620             661     51.4942E-03     52.4953E-03
            2620            3203     50.3528E-03     51.3649E-03
            2620            3221     52.8653E-03     54.1037E-03
            2621            3203     50.3528E-03     51.3649E-03
            2621            3204     48.8004E-03     49.6649E-03
            2621            3221     52.8653E-03     54.1037E-03
            2621            3222     50.1841E-03     51.4040E-03
            2622            3204     48.8004E-03     49.6649E-03
            2622            3205     46.6187E-03     47.2974E-03
            2622            3222     50.1841E-03     51.4040E-03
            2622            3223     47.2629E-03     48.3533E-03
            2623            3205     46.6187E-03     47.2974E-03
            2623            3206     43.9621E-03     44.4838E-03
            2623            3223     47.2629E-03     48.3533E-03
            2623            3224     44.1066E-03     45.1087E-03
            2624            3206     43.9621E-03     44.4838E-03
            2624            3207     41.0397E-03     41.4757E-03
            2624            3224     44.1066E-03     45.1087E-03
            2624            3225     40.9174E-03     41.8190E-03
            2625            3207     41.0397E-03     41.4757E-03
            2625            3208     38.0438E-03     38.4110E-03
            2625            3225     40.9174E-03     41.8190E-03
            2625            3226     37.7140E-03     38.5367E-03
            2626            3208     38.0438E-03     38.4110E-03
            2626            3209     35.0421E-03     35.3669E-03
            2626            3226     37.7140E-03     38.5367E-03
            2626            3227     34.5708E-03     35.3324E-03
            2627            3209     35.0421E-03     35.3669E-03
            2627            3210     32.1140E-03     32.4069E-03
            2627            3227     34.5708E-03     35.3324E-03
            2627            3228     31.5165E-03     32.2225E-03
            2628            3210     32.1140E-03     32.4069E-03
            2628            3211     29.2945E-03     29.5629E-03
            2628            3228     31.5165E-03     32.2225E-03
            2628            3229     28.5871E-03     29.2467E-03
            2629            3211     29.2945E-03     29.5629E-03
            2629            3212     26.6305E-03     26.8803E-03
            2629            3229     28.5871E-03     29.2467E-03
            2629            3230     25.8163E-03     26.4264E-03
            2630            3212     26.6305E-03     26.8803E-03
            2630            3213     24.1594E-03     24.3933E-03
            2630            3230     25.8163E-03     26.4264E-03
            2630            3231     23.2489E-03     23.8061E-03
            2631            3213     24.1594E-03     24.3933E-03
            2631            3214     21.9268E-03     22.1526E-03
            2631            3231     23.2489E-03     23.8061E-03
            2631            3232     20.9310E-03     21.4200E-03
            2632            3214     21.9268E-03     22.1526E-03
            2632            3215     19.9813E-03     20.1968E-03
            2632            3232     20.9310E-03     21.4200E-03
            2632            3233     18.9200E-03     19.3110E-03
            2633            3215     19.9813E-03     20.1968E-03
            2633            3216     18.3318E-03     18.5304E-03
            2633            3233     18.9200E-03     19.3110E-03
            2633            3234     17.2613E-03     17.4945E-03
            2634            3216     18.3318E-03     18.5304E-03
            2634            3217     17.0151E-03     17.1264E-03
            2634            3234     17.2613E-03     17.4945E-03
            2634            3235     15.9323E-03     15.8756E-03
            2635            3217     17.0151E-03     17.1264E-03
            2635            3218     15.9464E-03     15.7464E-03
            2635            3235     15.9323E-03     15.8756E-03
            2635            3236     14.8919E-03     14.4213E-03
            2636            3218     15.9464E-03     15.7464E-03
            2636            3219     14.9114E-03     14.2591E-03
            2636            3236     14.8919E-03     14.4213E-03
            2636            3237     14.0604E-03     13.0939E-03
            2637            3219     14.9114E-03     14.2591E-03
            2637            3220     13.9020E-03     12.8052E-03
            2637            3237     14.0604E-03     13.0939E-03
            2637            3238     13.4481E-03     11.9935E-03
            2638             442     12.7466E-03     12.2578E-03
            2638             443     12.6623E-03     12.4350E-03
            2638            3220     13.9020E-03     12.8052E-03
            2638            3238     13.4481E-03     11.9935E-03
            2639             659     59.0932E-03     60.3259E-03
            2639             660     55.4730E-03     56.4834E-03
            2639            3221     52.8653E-03     54.1037E-03
            2639            3239     55.0666E-03     56.4081E-03
            2640            3221     52.8653E-03     54.1037E-03
            2640            3222     50.1841E-03     51.4040E-03
            2640            3239     55.0666E-03     56.4081E-03
            2640            3240     51.1215E-03     52.5099E-03
            2641            3222     50.1841E-03     51.4040E-03
            2641            3223     47.2629E-03     48.3533E-03
            2641            3240     51.1215E-03     52.5099E-03
            2641            3241     47.2838E-03     48.7368E-03
            2642            3223     47.2629E-03     48.3533E-03
            2642            3224     44.1066E-03     45.1087E-03
            2642            3241     47.2838E-03     48.7368E-03
            2642            3242     43.7532E-03     45.1477E-03
            2643            3224     44.1066E-03     45.1087E-03
            2643            3225     40.9174E-03     41.8190E-03
            2643            3242     43.7532E-03     45.1477E-03
            2643            3243     40.3242E-03     41.6428E-03
            2644            3225     40.9174E-03     41.8190E-03
            2644            3226     37.7140E-03     38.5367E-03
            2644            3243     40.3242E-03     41.6428E-03
            2644            3244     37.0089E-03     38.2616E-03
            2645            3226     37.7140E-03     38.5367E-03
            2645            3227     34.5708E-03     35.3324E-03
            2645            3244     37.0089E-03     38.2616E-03
            2645            3245     33.7949E-03     34.9758E-03
            2646            3227     34.5708E-03     35.3324E-03
            2646            3228     31.5165E-03     32.2225E-03
            2646            3245     33.7949E-03     34.9758E-03
            2646            3246     30.6839E-03     31.8068E-03
            2647            3228     31.5165E-03     32.2225E-03
            2647            3229     28.5871E-03     29.2467E-03
            2647            3246     30.6839E-03     31.8068E-03
            2647            3247     27.6995E-03     28.7578E-03
            2648            3229     28.5871E-03     29.2467E-03
            2648            3230     25.8163E-03     26.4264E-03
            2648            3247     27.6995E-03     28.7578E-03
            2648            3248     24.8669E-03     25.8567E-03
            2649            3230     25.8163E-03     26.4264E-03
            2649            3231     23.2489E-03     23.8061E-03
            2649            3248     24.8669E-03     25.8567E-03
            2649            3249     22.2266E-03     23.1278E-03
            2650            3231     23.2489E-03     23.8061E-03
            2650            3232     20.9310E-03     21.4200E-03
            2650            3249     22.2266E-03     23.1278E-03
            2650            3250     19.8409E-03     20.6189E-03
            2651            3232     20.9310E-03     21.4200E-03
            2651            3233     18.9200E-03     19.3110E-03
            2651            3250     19.8409E-03     20.6189E-03
            2651            3251     17.7649E-03     18.3614E-03
            2652            3233     18.9200E-03     19.3110E-03
            2652            3234     17.2613E-03     17.4945E-03
            2652            3251     17.7649E-03     18.3614E-03
            2652            3252     16.0906E-03     16.3981E-03
            2653            3234     17.2613E-03     17.4945E-03
            2653            3235     15.9323E-03     15.8756E-03
            2653            3252     16.0906E-03     16.3981E-03
            2653            3253     14.8488E-03     14.7404E-03
            2654            3235     15.9323E-03     15.8756E-03
            2654            3236     14.8919E-03     14.4213E-03
            2654            3253     14.8488E-03     14.7404E-03
            2654            3254     13.9537E-03     13.3155E-03
            2655            3236     14.8919E-03     14.4213E-03
            2655            3237     14.0604E-03     13.0939E-03
            2655            3254     13.9537E-03     13.3155E-03
            2655            3255     13.4552E-03     12.2527E-03
            2656            3237     14.0604E-03     13.0939E-03
            2656            3238     13.4481E-03     11.9935E-03
            2656            3255     13.4552E-03     12.2527E-03
            2656            3256     13.4024E-03     11.7974E-03
            2657             441     13.1486E-03     12.8414E-03
            2657             442     12.7466E-03     12.2578E-03
            2657            3238     13.4481E-03     11.9935E-03
            2657            3256     13.4024E-03     11.7974E-03
            2658             658     62.5686E-03     63.6443E-03
            2658             659     59.0932E-03     60.3259E-03
            2658            3239     55.0666E-03     56.4081E-03
            2658            3257     56.4883E-03     57.8336E-03
            2659            3239     55.0666E-03     56.4081E-03
            2659            3240     51.1215E-03     52.5099E-03
            2659            3257     56.4883E-03     57.8336E-03
            2659            3258     51.0645E-03     52.7500E-03
            2660            3240     51.1215E-03     52.5099E-03
            2660            3241     47.2838E-03     48.7368E-03
            2660            3258     51.0645E-03     52.7500E-03
            2660            3259     46.7363E-03     48.4964E-03
            2661            3241     47.2838E-03     48.7368E-03
            2661            3242     43.7532E-03     45.1477E-03
            2661            3259     46.7363E-03     48.4964E-03
            2661            3260     42.8837E-03     44.6203E-03
            2662            3242     43.7532E-03     45.1477E-03
            2662            3243     40.3242E-03     41.6428E-03
            2662            3260     42.8837E-03     44.6203E-03
            2662            3261     39.3327E-03     41.0407E-03
            2663            3243     40.3242E-03     41.6428E-03
            2663            3244     37.0089E-03     38.2616E-03
            2663            3261     39.3327E-03     41.0407E-03
            2663            3262     35.9798E-03     37.6248E-03
            2664            3244     37.0089E-03     38.2616E-03
            2664            3245     33.7949E-03     34.9758E-03
            2664            3262     35.9798E-03     37.6248E-03
            2664            3263     32.7463E-03     34.3429E-03
            2665            3245     33.7949E-03     34.9758E-03
            2665            3246     30.6839E-03     31.8068E-03
            2665            3263     32.7463E-03     34.3429E-03
            2665            3264     29.6314E-03     31.1670E-03
            2666            3246     30.6839E-03     31.8068E-03
            2666            3247     27.6995E-03     28.7578E-03
            2666            3264     29.6314E-03     31.1670E-03
            2666            3265     26.6246E-03     28.0977E-03
            2667            3247     27.6995E-03     28.7578E-03
            2667            3248     24.8669E-03     25.8567E-03
            2667            3265     26.6246E-03     28.0977E-03
            2667            3266     23.7546E-03     25.1461E-03
            2668            3248     24.8669E-03     25.8567E-03
            2668            3249     22.2266E-03     23.1278E-03
            2668            3266     23.7546E-03     25.1461E-03
            2668            3267     21.0590E-03     22.3391E-03
            2669            3249     22.2266E-03     23.1278E-03
            2669            3250     19.8409E-03     20.6189E-03
            2669            3267     21.0590E-03     22.3391E-03
            2669            3268     18.5909E-03     19.7082E-03
            2670            3250     19.8409E-03     20.6189E-03
            2670            3251     17.7649E-03     18.3614E-03
            2670            3268     18.5909E-03     19.7082E-03
            2670            3269     16.4568E-03     17.3198E-03
            2671            3251     17.7649E-03     18.3614E-03
            2671            3252     16.0906E-03     16.3981E-03
            2671            3269     16.4568E-03     17.3198E-03
            2671            3270     14.7361E-03     15.2210E-03
            2672            3252     16.0906E-03     16.3981E-03
            2672            3253     14.8488E-03     14.7404E-03
            2672            3270     14.7361E-03     15.2210E-03
            2672            3271     13.6259E-03     13.5683E-03
            2673            3253     14.8488E-03     14.7404E-03
            2673            3254     13.9537E-03     13.3155E-03
            2673            3271     13.6259E-03     13.5683E-03
            2673            3272     13.2197E-03     12.5008E-03
            2674            3254     13.9537E-03     13.3155E-03
            2674            3255     13.4552E-03     12.2527E-03
            2674            3272     13.2197E-03     12.5008E-03
            2674            3273     13.2694E-03     11.9479E-03
            2675            3255     13.4552E-03     12.2527E-03
            2675            3256     13.4024E-03     11.7974E-03
            2675            3273     13.2694E-03     11.9479E-03
            2675            3274     13.8104E-03     12.1190E-03
            2676             440     14.0646E-03     13.8241E-03
            2676             441     13.1486E-03     12.8414E-03
            2676            3256     13.4024E-03     11.7974E-03
            2676            3274     13.8104E-03     12.1190E-03
            2677             657     64.5106E-03     65.6134E-03
            2677             658     62.5686E-03     63.6443E-03
            2677            3257     56.4883E-03     57.8336E-03
            2677            3275     56.0082E-03     57.8183E-03
            2678            3257     56.4883E-03     57.8336E-03
            2678            3258     51.0645E-03     52.7500E-03
            2678            3275     56.0082E-03     57.8183E-03
            2678            3276     50.2024E-03     52.2178E-03
            2679            3258     51.0645E-03     52.7500E-03
            2679            3259     46.7363E-03     48.4964E-03
            2679            3276     50.2024E-03     52.2178E-03
            2679            3277     45.6058E-03     47.6456E-03
            2680            3259     46.7363E-03     48.4964E-03
            2680            3260     42.8837E-03     44.6203E-03
            2680            3277     45.6058E-03     47.6456E-03
            2680            3278     41.6313E-03     43.7041E-03
            2681            3260     42.8837E-03     44.6203E-03
            2681            3261     39.3327E-03     41.0407E-03
            2681            3278     41.6313E-03     43.7041E-03
            2681            3279     38.0749E-03     40.1247E-03
            2682            3261     39.3327E-03     41.0407E-03
            2682            3262     35.9798E-03     37.6248E-03
            2682            3279     38.0749E-03     40.1247E-03
            2682            3280     34.7177E-03     36.7521E-03
            2683            3262     35.9798E-03     37.6248E-03
            2683            3263     32.7463E-03     34.3429E-03
            2683            3280     34.7177E-03     36.7521E-03
            2683            3281     31.5152E-03     33.5160E-03
            2684            3263     32.7463E-03     34.3429E-03
            2684            3264     29.6314E-03     31.1670E-03
            2684            3281     31.5152E-03     33.5160E-03
            2684            3282     28.4062E-03     30.3684E-03
            2685            3264     29.6314E-03     31.1670E-03
            2685            3265     26.6246E-03     28.0977E-03
            2685            3282     28.4062E-03     30.3684E-03
            2685            3283     25.3979E-03     27.3051E-03
            2686            3265     26.6246E-03     28.0977E-03
            2686            3266     23.7546E-03     25.1461E-03
            2686            3283     25.3979E-03     27.3051E-03
            2686            3284     22.4949E-03     24.3232E-03
            2687            3266     23.7546E-03     25.1461E-03
            2687            3267     21.0590E-03     22.3391E-03
            2687            3284     22.4949E-03     24.3232E-03
            2687            3285     19.7351E-03     21.4457E-03
            2688            3267     21.0590E-03     22.3391E-03
            2688            3268     18.5909E-03     19.7082E-03
            2688            3285     19.7351E-03     21.4457E-03
            2688            3286     17.1809E-03     18.7059E-03
            2689            3268     18.5909E-03     19.7082E-03
            2689            3269     16.4568E-03     17.3198E-03
            2689            3286     17.1809E-03     18.7059E-03
            2689            3287     14.9199E-03     16.1536E-03
            2690            3269     16.4568E-03     17.3198E-03
            2690            3270     14.7361E-03     15.2210E-03
            2690            3287     14.9199E-03     16.1536E-03
            2690            3288     13.1575E-03     13.9319E-03
            2691            3270     14.7361E-03     15.2210E-03
            2691            3271     13.6259E-03     13.5683E-03
            2691            3288     13.1575E-03     13.9319E-03
            2691            3289     12.0787E-03     12.1962E-03
            2692            3271     13.6259E-03     13.5683E-03
            2692            3272     13.2197E-03     12.5008E-03
            2692            3289     12.0787E-03     12.1962E-03
            2692            3290     12.1475E-03     11.4768E-03
            2693            3272     13.2197E-03     12.5008E-03
            2693            3273     13.2694E-03     11.9479E-03
            2693            3290     12.1475E-03     11.4768E-03
            2693            3291     13.5118E-03     12.1372E-03
            2694            3273     13.2694E-03     11.9479E-03
            2694            3274     13.8104E-03     12.1190E-03
            2694            3291     13.5118E-03     12.1372E-03
            2694            3292     15.1545E-03     13.4301E-03
            2695             439     15.8061E-03     15.6624E-03
            2695             440     14.0646E-03     13.8241E-03
            2695            3274     13.8104E-03     12.1190E-03
            2695            3292     15.1545E-03     13.4301E-03
            2696             656     62.7646E-03     65.1556E-03
            2696             657     64.5106E-03     65.6134E-03
            2696            3275     56.0082E-03     57.8183E-03
            2696            3293     54.4285E-03     56.7491E-03
            2697            3275     56.0082E-03     57.8183E-03
            2697            3276     50.2024E-03     52.2178E-03
            2697            3293     54.4285E-03     56.7491E-03
            2697            3294     48.8011E-03     51.0741E-03
            2698            3276     50.2024E-03     52.2178E-03
            2698            3277     45.6058E-03     47.6456E-03
            2698            3294     48.8011E-03     51.0741E-03
            2698            3295     44.1546E-03     46.4688E-03
            2699            3277     45.6058E-03     47.6456E-03
            2699            3278     41.6313E-03     43.7041E-03
            2699            3295     44.1546E-03     46.4688E-03
            2699            3296     40.2540E-03     42.6089E-03
            2700            3278     41.6313E-03     43.7041E-03
            2700            3279     38.0749E-03     40.1247E-03
            2700            3296     40.2540E-03     42.6089E-03
            2700            3297     36.6944E-03     39.0858E-03
            2701            3279     38.0749E-03     40.1247E-03
            2701            3280     34.7177E-03     36.7521E-03
            2701            3297     36.6944E-03     39.0858E-03
            2701            3298     33.3796E-03     35.7963E-03
            2702            3280     34.7177E-03     36.7521E-03
            2702            3281     31.5152E-03     33.5160E-03
            2702            3298     33.3796E-03     35.7963E-03
            2702            3299     30.1895E-03     32.6095E-03
            2703            3281     31.5152E-03     33.5160E-03
            2703            3282     28.4062E-03     30.3684E-03
            2703            3299     30.1895E-03     32.6095E-03
            2703            3300     27.0967E-03     29.5064E-03
            2704            3282     28.4062E-03     30.3684E-03
            2704            3283     25.3979E-03     27.3051E-03
            2704            3300     27.0967E-03     29.5064E-03
            2704            3301     24.0747E-03     26.4480E-03
            2705            3283     25.3979E-03     27.3051E-03
            2705            3284     22.4949E-03     24.3232E-03
            2705            3301     24.0747E-03     26.4480E-03
            2705            3302     21.1352E-03     23.4469E-03
            2706            3284     22.4949E-03     24.3232E-03
            2706            3285     19.7351E-03     21.4457E-03
            2706            3302     21.1352E-03     23.4469E-03
            2706            3303     18.2974E-03     20.5006E-03
            2707            3285     19.7351E-03     21.4457E-03
            2707            3286     17.1809E-03     18.7059E-03
            2707            3303     18.2974E-03     20.5006E-03
            2707            3304     15.6180E-03     17.6430E-03
            2708            3286     17.1809E-03     18.7059E-03
            2708            3287     14.9199E-03     16.1536E-03
            2708            3304     15.6180E-03     17.6430E-03
            2708            3305     13.2005E-03     14.9227E-03
            2709            3287     14.9199E-03     16.1536E-03
            2709            3288     13.1575E-03     13.9319E-03
            2709            3305     13.2005E-03     14.9227E-03
            2709            3306     11.2397E-03     12.4571E-03
            2710            3288     13.1575E-03     13.9319E-03
            2710            3289     12.0787E-03     12.1962E-03
            2710            3306     11.2397E-03     12.4571E-03
            2710            3307     10.1701E-03     10.5948E-03
            2711            3289     12.0787E-03     12.1962E-03
            2711            3290     12.1475E-03     11.4768E-03
            2711            3307     10.1701E-03     10.5948E-03
            2711            3308     10.3671E-03     9.81574E-03
            2712            3290     12.1475E-03     11.4768E-03
            2712            3291     13.5118E-03     12.1372E-03
            2712            3308     10.3671E-03     9.81574E-03
            2712            3309     12.6831E-03     11.3505E-03
            2713            3291     13.5118E-03     12.1372E-03
            2713            3292     15.1545E-03     13.4301E-03
            2713            3309     12.6831E-03     11.3505E-03
            2713            3310     16.9219E-03     15.2435E-03
            2714             438     19.2969E-03     19.3436E-03
            2714             439     15.8061E-03     15.6624E-03
            2714            3292     15.1545E-03     13.4301E-03
            2714            3310     16.9219E-03     15.2435E-03
            2715             655     67.8385E-03     68.0594E-03
            2715             656     62.7646E-03     65.1556E-03
            2715            3293     54.4285E-03     56.7491E-03
            2715            3311     63.5433E-03     63.6728E-03
            2716            3293     54.4285E-03     56.7491E-03
            2716            3294     48.8011E-03     51.0741E-03
            2716            3311     63.5433E-03     63.6728E-03
            2716            3312     59.6051E-03     59.9337E-03
            2717            3294     48.8011E-03     51.0741E-03
            2717            3295     44.1546E-03     46.4688E-03
            2717            3312     59.6051E-03     59.9337E-03
            2717            3313     55.9847E-03     56.4850E-03
            2718            3295     44.1546E-03     46.4688E-03
            2718            3296     40.2540E-03     42.6089E-03
            2718            3313     55.9847E-03     56.4850E-03
            2718            3314     52.4142E-03     53.1367E-03
            2719            3296     40.2540E-03     42.6089E-03
            2719            3297     36.6944E-03     39.0858E-03
            2719            3314     52.4142E-03     53.1367E-03
            2719            3315     48.8898E-03     49.7544E-03
            2720            3297     36.6944E-03     39.0858E-03
            2720            3298     33.3796E-03     35.7963E-03
            2720            3315     48.8898E-03     49.7544E-03
            2720            3316     45.3484E-03     46.3519E-03
            2721            3298     33.3796E-03     35.7963E-03
            2721            3299     30.1895E-03     32.6095E-03
            2721            3316     45.3484E-03     46.3519E-03
            2721            3317     41.8055E-03     42.8892E-03
            2722            3299     30.1895E-03     32.6095E-03
            2722            3300     27.0967E-03     29.5064E-03
            2722            3317     41.8055E-03     42.8892E-03
            2722            3318     38.2610E-03     39.4113E-03
            2723            3300     27.0967E-03     29.5064E-03
            2723            3301     24.0747E-03     26.4480E-03
            2723            3318     38.2610E-03     39.4113E-03
            2723            3319     34.7437E-03     35.9228E-03
            2724            3301     24.0747E-03     26.4480E-03
            2724            3302     21.1352E-03     23.4469E-03
            2724            3319     34.7437E-03     35.9228E-03
            2724            3320     31.2827E-03     32.4700E-03
            2725            3302     21.1352E-03     23.4469E-03
            2725            3303     18.2974E-03     20.5006E-03
            2725            3320     31.2827E-03     32.4700E-03
            2725            3321     27.9221E-03     29.0822E-03
            2726            3303     18.2974E-03     20.5006E-03
            2726            3304     15.6180E-03     17.6430E-03
            2726            3321     27.9221E-03     29.0822E-03
            2726            3322     24.7190E-03     25.8096E-03
            2727            3304     15.6180E-03     17.6430E-03
            2727            3305     13.2005E-03     14.9227E-03
            2727            3322     24.7190E-03     25.8096E-03
            2727            3323     21.7741E-03     22.7283E-03
            2728            3305     13.2005E-03     14.9227E-03
            2728            3306     11.2397E-03     12.4571E-03
            2728            3323     21.7741E-03     22.7283E-03
            2728            3324     19.2061E-03     19.9171E-03
            2729            3306     11.2397E-03     12.4571E-03
            2729            3307     10.1701E-03     10.5948E-03
            2729            3324     19.2061E-03     19.9171E-03
            2729            3325     17.3214E-03     17.6814E-03
            2730            3307     10.1701E-03     10.5948E-03
            2730            3308     10.3671E-03     9.81574E-03
            2730            3325     17.3214E-03     17.6814E-03
            2730            3326     16.3294E-03     16.3044E-03
            2731            3308     10.3671E-03     9.81574E-03
            2731            3309     12.6831E-03     11.3505E-03
            2731            3326     16.3294E-03     16.3044E-03
            2731            3327     16.3927E-03     16.5680E-03
            2732            3309     12.6831E-03     11.3505E-03
            2732            3310     16.9219E-03     15.2435E-03
            2732            3327     16.3927E-03     16.5680E-03
            2732            3328     17.6395E-03     19.8395E-03
            2733             437     20.6129E-03     23.0764E-03
            2733             438     19.2969E-03     19.3436E-03
            2733            3310     16.9219E-03     15.2435E-03
            2733            3328     17.6395E-03     19.8395E-03
            2734             654     77.1160E-03     75.8480E-03
            2734             655     67.8385E-03     68.0594E-03
            2734            3311     63.5433E-03     63.6728E-03
            2734            3329     75.7368E-03     74.4500E-03
            2735            3311     63.5433E-03     63.6728E-03
            2735            3312     59.6051E-03     59.9337E-03
            2735            3329     75.7368E-03     74.4500E-03
            2735            3330     73.2867E-03     72.1699E-03
            2736            3312     59.6051E-03     59.9337E-03
            2736            3313     55.9847E-03     56.4850E-03
            2736            3330     73.2867E-03     72.1699E-03
            2736            3331     70.1649E-03     69.2437E-03
            2737            3313     55.9847E-03     56.4850E-03
            2737            3314     52.4142E-03     53.1367E-03
            2737            3331     70.1649E-03     69.2437E-03
            2737            3332     66.5797E-03     65.8523E-03
            2738            3314     52.4142E-03     53.1367E-03
            2738            3315     48.8898E-03     49.7544E-03
            2738            3332     66.5797E-03     65.8523E-03
            2738            3333     62.6744E-03     62.1238E-03
            2739            3315     48.8898E-03     49.7544E-03
            2739            3316     45.3484E-03     46.3519E-03
            2739            3333     62.6744E-03     62.1238E-03
            2739            3334     58.5628E-03     58.1490E-03
            2740            3316     45.3484E-03     46.3519E-03
            2740            3317     41.8055E-03     42.8892E-03
            2740            3334     58.5628E-03     58.1490E-03
            2740            3335     54.3184E-03     54.0265E-03
            2741            3317     41.8055E-03     42.8892E-03
            2741            3318     38.2610E-03     39.4113E-03
            2741            3335     54.3184E-03     54.0265E-03
            2741            3336     50.0264E-03     49.8191E-03
            2742            3318     38.2610E-03     39.4113E-03
            2742            3319     34.7437E-03     35.9228E-03
            2742            3336     50.0264E-03     49.8191E-03
            2742            3337     45.7372E-03     45.6022E-03
            2743            3319     34.7437E-03     35.9228E-03
            2743            3320     31.2827E-03     32.4700E-03
            2743            3337     45.7372E-03     45.6022E-03
            2743            3338     41.5248E-03     41.4389E-03
            2744            3320     31.2827E-03     32.4700E-03
            2744            3321     27.9221E-03     29.0822E-03
            2744            3338     41.5248E-03     41.4389E-03
            2744            3339     37.4502E-03     37.4015E-03
            2745            3321     27.9221E-03     29.0822E-03
            2745            3322     24.7190E-03     25.8096E-03
            2745            3339     37.4502E-03     37.4015E-03
            2745            3340     33.5890E-03     33.5761E-03
            2746            3322     24.7190E-03     25.8096E-03
            2746            3323     21.7741E-03     22.7283E-03
            2746            3340     33.5890E-03     33.5761E-03
            2746            3341     30.0375E-03     30.0629E-03
            2747            3323     21.7741E-03     22.7283E-03
            2747            3324     19.2061E-03     19.9171E-03
            2747            3341     30.0375E-03     30.0629E-03
            2747            3342     26.8715E-03     27.0002E-03
            2748            3324     19.2061E-03     19.9171E-03
            2748            3325     17.3214E-03     17.6814E-03
            2748            3342     26.8715E-03     27.0002E-03
            2748            3343     24.1965E-03     24.5420E-03
            2749            3325     17.3214E-03     17.6814E-03
            2749            3326     16.3294E-03     16.3044E-03
            2749            3343     24.1965E-03     24.5420E-03
            2749            3344     22.0167E-03     22.8765E-03
            2750            3326     16.3294E-03     16.3044E-03
            2750            3327     16.3927E-03     16.5680E-03
            2750            3344     22.0167E-03     22.8765E-03
            2750            3345     20.1820E-03     22.2959E-03
            2751            3327     16.3927E-03     16.5680E-03
            2751            3328     17.6395E-03     19.8395E-03
            2751            3345     20.1820E-03     22.2959E-03
            2751            3346     19.1871E-03     22.6481E-03
            2752             436     20.1937E-03     23.6371E-03
            2752             437     20.6129E-03     23.0764E-03
            2752            3328     17.6395E-03     19.8395E-03
            2752            3346     19.1871E-03     22.6481E-03
            2753             653     81.9886E-03     82.5352E-03
            2753             654     77.1160E-03     75.8480E-03
            2753            3329     75.7368E-03     74.4500E-03
            2753            3347     80.0295E-03     80.3501E-03
            2754            3329     75.7368E-03     74.4500E-03
            2754            3330     73.2867E-03     72.1699E-03
            2754            3347     80.0295E-03     80.3501E-03
            2754            3348     77.0366E-03     77.1257E-03
            2755            3330     73.2867E-03     72.1699E-03
            2755            3331     70.1649E-03     69.2437E-03
            2755            3348     77.0366E-03     77.1257E-03
            2755            3349     73.2699E-03     73.2700E-03
            2756            3331     70.1649E-03     69.2437E-03
            2756            3332     66.5797E-03     65.8523E-03
            2756            3349     73.2699E-03     73.2700E-03
            2756            3350     69.0107E-03     68.9965E-03
            2757            3332     66.5797E-03     65.8523E-03
            2757            3333     62.6744E-03     62.1238E-03
            2757            3350     69.0107E-03     68.9965E-03
            2757            3351     64.4401E-03     64.4370E-03
            2758            3333     62.6744E-03     62.1238E-03
            2758            3334     58.5628E-03     58.1490E-03
            2758            3351     64.4401E-03     64.4370E-03
            2758            3352     59.6794E-03     59.7203E-03
            2759            3334     58.5628E-03     58.1490E-03
            2759            3335     54.3184E-03     54.0265E-03
            2759            3352     59.6794E-03     59.7203E-03
            2759            3353     54.8430E-03     54.9145E-03
            2760            3335     54.3184E-03     54.0265E-03
            2760            3336     50.0264E-03     49.8191E-03
            2760            3353     54.8430E-03     54.9145E-03
            2760            3354     49.9849E-03     50.0975E-03
            2761            3336     50.0264E-03     49.8191E-03
            2761            3337     45.7372E-03     45.6022E-03
            2761            3354     49.9849E-03     50.0975E-03
            2761            3355     45.1860E-03     45.3231E-03
            2762            3337     45.7372E-03     45.6022E-03
            2762            3338     41.5248E-03     41.4389E-03
            2762            3355     45.1860E-03     45.3231E-03
            2762            3356     40.4906E-03     40.6545E-03
            2763            3338     41.5248E-03     41.4389E-03
            2763            3339     37.4502E-03     37.4015E-03
            2763            3356     40.4906E-03     40.6545E-03
            2763            3357     35.9783E-03     36.1635E-03
            2764            3339     37.4502E-03     37.4015E-03
            2764            3340     33.5890E-03     33.5761E-03
            2764            3357     35.9783E-03     36.1635E-03
            2764            3358     31.7248E-03     31.9459E-03
            2765            3340     33.5890E-03     33.5761E-03
            2765            3341     30.0375E-03     30.0629E-03
            2765            3358     31.7248E-03     31.9459E-03
            2765            3359     27.8425E-03     28.1314E-03
            2766            3341     30.0375E-03     30.0629E-03
            2766            3342     26.8715E-03     27.0002E-03
            2766            3359     27.8425E-03     28.1314E-03
            2766            3360     24.4664E-03     24.9069E-03
            2767            3342     26.8715E-03     27.0002E-03
            2767            3343     24.1965E-03     24.5420E-03
            2767            3360     24.4664E-03     24.9069E-03
            2767            3361     21.7769E-03     22.4777E-03
            2768            3343     24.1965E-03     24.5420E-03
            2768            3344     22.0167E-03     22.8765E-03
            2768            3361     21.7769E-03     22.4777E-03
            2768            3362     19.8721E-03     21.0860E-03
            2769            3344     22.0167E-03     22.8765E-03
            2769            3345     20.1820E-03     22.2959E-03
            2769            3362     19.8721E-03     21.0860E-03
            2769            3363     19.2386E-03     20.6164E-03
            2770            3345     20.1820E-03     22.2959E-03
            2770            3346     19.1871E-03     22.6481E-03
            2770            3363     19.2386E-03     20.6164E-03
            2770            3364     20.0347E-03     19.9507E-03
            2771             435     20.0315E-03     20.7735E-03
            2771             436     20.1937E-03     23.6371E-03
            2771            3346     19.1871E-03     22.6481E-03
            2771            3364     20.0347E-03     19.9507E-03
            2772             652     86.6270E-03     87.9976E-03
            2772             653     81.9886E-03     82.5352E-03
            2772            3347     80.0295E-03     80.3501E-03
            2772            3365     83.8419E-03     85.0687E-03
            2773            3347     80.0295E-03     80.3501E-03
            2773            3348     77.0366E-03     77.1257E-03
            2773            3365     83.8419E-03     85.0687E-03
            2773            3366     80.1936E-03     81.2254E-03
            2774            3348     77.0366E-03     77.1257E-03
            2774            3349     73.2699E-03     73.2700E-03
            2774            3366     80.1936E-03     81.2254E-03
            2774            3367     75.8754E-03     76.6814E-03
            2775            3349     73.2699E-03     73.2700E-03
            2775            3350     69.0107E-03     68.9965E-03
            2775            3367     75.8754E-03     76.6814E-03
            2775            3368     71.0490E-03     71.7117E-03
            2776            3350     69.0107E-03     68.9965E-03
            2776            3351     64.4401E-03     64.4370E-03
            2776            3368     71.0490E-03     71.7117E-03
            2776            3369     65.9267E-03     66.5091E-03
            2777            3351     64.4401E-03     64.4370E-03
            2777            3352     59.6794E-03     59.7203E-03
            2777            3369     65.9267E-03     66.5091E-03
            2777            3370     60.6618E-03     61.1829E-03
            2778            3352     59.6794E-03     59.7203E-03
            2778            3353     54.8430E-03     54.9145E-03
            2778            3370     60.6618E-03     61.1829E-03
            2778            3371     55.3323E-03     55.8319E-03
            2779            3353     54.8430E-03     54.9145E-03
            2779            3354     49.9849E-03     50.0975E-03
            2779            3371     55.3323E-03     55.8319E-03
            2779            3372     50.0351E-03     50.5122E-03
            2780            3354     49.9849E-03     50.0975E-03
            2780            3355     45.1860E-03     45.3231E-03
            2780            3372     50.0351E-03     50.5122E-03
            2780            3373     44.8053E-03     45.2777E-03
            2781            3355     45.1860E-03     45.3231E-03
            2781            3356     40.4906E-03     40.6545E-03
            2781            3373     44.8053E-03     45.2777E-03
            2781            3374     39.7184E-03     40.1843E-03
            2782            3356     40.4906E-03     40.6545E-03
            2782            3357     35.9783E-03     36.1635E-03
            2782            3374     39.7184E-03     40.1843E-03
            2782            3375     34.8244E-03     35.2997E-03
            2783            3357     35.9783E-03     36.1635E-03
            2783            3358     31.7248E-03     31.9459E-03
            2783            3375     34.8244E-03     35.2997E-03
            2783            3376     30.2282E-03     30.7241E-03
            2784            3358     31.7248E-03     31.9459E-03
            2784            3359     27.8425E-03     28.1314E-03
            2784            3376     30.2282E-03     30.7241E-03
            2784            3377     26.0511E-03     26.6059E-03
            2785            3359     27.8425E-03     28.1314E-03
            2785            3360     24.4664E-03     24.9069E-03
            2785            3377     26.0511E-03     26.6059E-03
            2785            3378     22.4974E-03     23.1395E-03
            2786            3360     24.4664E-03     24.9069E-03
            2786            3361     21.7769E-03     22.4777E-03
            2786            3378     22.4974E-03     23.1395E-03
            2786            3379     19.8093E-03     20.5728E-03
            2787            3361     21.7769E-03     22.4777E-03
            2787            3362     19.8721E-03     21.0860E-03
            2787            3379     19.8093E-03     20.5728E-03
            2787            3380     18.3634E-03     19.0185E-03
            2788            3362     19.8721E-03     21.0860E-03
            2788            3363     19.2386E-03     20.6164E-03
            2788            3380     18.3634E-03     19.0185E-03
            2788            3381     18.3252E-03     18.0953E-03
            2789            3363     19.2386E-03     20.6164E-03
            2789            3364     20.0347E-03     19.9507E-03
            2789            3381     18.3252E-03     18.0953E-03
            2789            3382     18.7977E-03     17.5437E-03
            2790             434     18.9648E-03     18.8821E-03
            2790             435     20.0315E-03     20.7735E-03
            2790            3364     20.0347E-03     19.9507E-03
            2790            3382     18.7977E-03     17.5437E-03
            2791             651     90.9925E-03     92.5567E-03
            2791             652     86.6270E-03     87.9976E-03
            2791            3365     83.8419E-03     85.0687E-03
            2791            3383     87.1270E-03     88.8548E-03
            2792            3365     83.8419E-03     85.0687E-03
            2792            3366     80.1936E-03     81.2254E-03
            2792            3383     87.1270E-03     88.8548E-03
            2792            3384     82.7967E-03     84.3750E-03
            2793            3366     80.1936E-03     81.2254E-03
            2793            3367     75.8754E-03     76.6814E-03
            2793            3384     82.7967E-03     84.3750E-03
            2793            3385     77.8461E-03     79.2603E-03
            2794            3367     75.8754E-03     76.6814E-03
            2794            3368     71.0490E-03     71.7117E-03
            2794            3385     77.8461E-03     79.2603E-03
            2794            3386     72.5082E-03     73.7511E-03
            2795            3368     71.0490E-03     71.7117E-03
            2795            3369     65.9267E-03     66.5091E-03
            2795            3386     72.5082E-03     73.7511E-03
            2795            3387     66.9436E-03     68.0402E-03
            2796            3369     65.9267E-03     66.5091E-03
            2796            3370     60.6618E-03     61.1829E-03
            2796            3387     66.9436E-03     68.0402E-03
            2796            3388     61.2658E-03     62.2679E-03
            2797            3370     60.6618E-03     61.1829E-03
            2797            3371     55.3323E-03     55.8319E-03
            2797            3388     61.2658E-03     62.2679E-03
            2797            3389     55.5918E-03     56.5124E-03
            2798            3371     55.3323E-03     55.8319E-03
            2798            3372     50.0351E-03     50.5122E-03
            2798            3389     55.5918E-03     56.5124E-03
            2798            3390     49.9538E-03     50.8234E-03
            2799            3372     50.0351E-03     50.5122E-03
            2799            3373     44.8053E-03     45.2777E-03
            2799            3390     49.9538E-03     50.8234E-03
            2799            3391     44.4214E-03     45.2481E-03
            2800            3373     44.8053E-03     45.2777E-03
            2800            3374     39.7184E-03     40.1843E-03
            2800            3391     44.4214E-03     45.2481E-03
            2800            3392     39.0238E-03     39.8259E-03
            2801            3374     39.7184E-03     40.1843E-03
            2801            3375     34.8244E-03     35.2997E-03
            2801            3392     39.0238E-03     39.8259E-03
            2801            3393     33.8413E-03     34.6250E-03
            2802            3375     34.8244E-03     35.2997E-03
            2802            3376     30.2282E-03     30.7241E-03
            2802            3393     33.8413E-03     34.6250E-03
            2802            3394     28.9513E-03     29.7333E-03
            2803            3376     30.2282E-03     30.7241E-03
            2803            3377     26.0511E-03     26.6059E-03
            2803            3394     28.9513E-03     29.7333E-03
            2803            3395     24.5176E-03     25.2966E-03
            2804            3377     26.0511E-03     26.6059E-03
            2804            3378     22.4974E-03     23.1395E-03
            2804            3395     24.5176E-03     25.2966E-03
            2804            3396     20.7796E-03     21.5215E-03
            2805            3378     22.4974E-03     23.1395E-03
            2805            3379     19.8093E-03     20.5728E-03
            2805            3396     20.7796E-03     21.5215E-03
            2805            3397     18.0827E-03     18.6341E-03
            2806            3379     19.8093E-03     20.5728E-03
            2806            3380     18.3634E-03     19.0185E-03
            2806            3397     18.0827E-03     18.6341E-03
            2806            3398     16.8039E-03     16.7413E-03
            2807            3380     18.3634E-03     19.0185E-03
            2807            3381     18.3252E-03     18.0953E-03
            2807            3398     16.8039E-03     16.7413E-03
            2807            3399     16.7770E-03     15.8462E-03
            2808            3381     18.3252E-03     18.0953E-03
            2808            3382     18.7977E-03     17.5437E-03
            2808            3399     16.7770E-03     15.8462E-03
            2808            3400     17.7662E-03     16.0164E-03
            2809             433     18.4782E-03     18.6151E-03
            2809             434     18.9648E-03     18.8821E-03
            2809            3382     18.7977E-03     17.5437E-03
            2809            3400     17.7662E-03     16.0164E-03
            2810             650     94.8688E-03     96.5351E-03
            2810             651     90.9925E-03     92.5567E-03
            2810            3383     87.1270E-03     88.8548E-03
            2810            3401     90.0507E-03     91.9216E-03
            2811            3383     87.1270E-03     88.8548E-03
            2811            3384     82.7967E-03     84.3750E-03
            2811            3401     90.0507E-03     91.9216E-03
            2811            3402     84.7774E-03     86.7016E-03
            2812            3384     82.7967E-03     84.3750E-03
            2812            3385     77.8461E-03     79.2603E-03
            2812            3402     84.7774E-03     86.7016E-03
            2812            3403     79.1680E-03     80.9921E-03
            2813            3385     77.8461E-03     79.2603E-03
            2813            3386     72.5082E-03     73.7511E-03
            2813            3403     79.1680E-03     80.9921E-03
            2813            3404     73.3233E-03     74.9946E-03
            2814            3386     72.5082E-03     73.7511E-03
            2814            3387     66.9436E-03     68.0402E-03
            2814            3404     73.3233E-03     74.9946E-03
            2814            3405     67.3566E-03     68.9021E-03
            2815            3387     66.9436E-03     68.0402E-03
            2815            3388     61.2658E-03     62.2679E-03
            2815            3405     67.3566E-03     68.9021E-03
            2815            3406     61.4021E-03     62.8228E-03
            2816            3388     61.2658E-03     62.2679E-03
            2816            3389     55.5918E-03     56.5124E-03
            2816            3406     61.4021E-03     62.8228E-03
            2816            3407     55.4739E-03     56.7997E-03
            2817            3389     55.5918E-03     56.5124E-03
            2817            3390     49.9538E-03     50.8234E-03
            2817            3407     55.4739E-03     56.7997E-03
            2817            3408     49.6316E-03     50.8792E-03
            2818            3390     49.9538E-03     50.8234E-03
            2818            3391     44.4214E-03     45.2481E-03
            2818            3408     49.6316E-03     50.8792E-03
            2818            3409     43.8878E-03     45.0759E-03
            2819            3391     44.4214E-03     45.2481E-03
            2819            3392     39.0238E-03     39.8259E-03
            2819            3409     43.8878E-03     45.0759E-03
            2819            3410     38.2934E-03     39.4328E-03
            2820            3392     39.0238E-03     39.8259E-03
            2820            3393     33.8413E-03     34.6250E-03
            2820            3410     38.2934E-03     39.4328E-03
            2820            3411     32.8876E-03     33.9882E-03
            2821            3393     33.8413E-03     34.6250E-03
            2821            3394     28.9513E-03     29.7333E-03
            2821            3411     32.8876E-03     33.9882E-03
            2821            3412     27.7784E-03     28.8324E-03
            2822            3394     28.9513E-03     29.7333E-03
            2822            3395     24.5176E-03     25.2966E-03
            2822            3412     27.7784E-03     28.8324E-03
            2822            3413     23.1112E-03     24.0840E-03
            2823            3395     24.5176E-03     25.2966E-03
            2823            3396     20.7796E-03     21.5215E-03
            2823            3413     23.1112E-03     24.0840E-03
            2823            3414     19.1616E-03     19.9444E-03
            2824            3396     20.7796E-03     21.5215E-03
            2824            3397     18.0827E-03     18.6341E-03
            2824            3414     19.1616E-03     19.9444E-03
            2824            3415     16.3936E-03     16.6865E-03
            2825            3397     18.0827E-03     18.6341E-03
            2825            3398     16.8039E-03     16.7413E-03
            2825            3415     16.3936E-03     16.6865E-03
            2825            3416     15.1074E-03     14.5959E-03
            2826            3398     16.8039E-03     16.7413E-03
            2826            3399     16.7770E-03     15.8462E-03
            2826            3416     15.1074E-03     14.5959E-03
            2826            3417     15.4355E-03     13.9890E-03
            2827            3399     16.7770E-03     15.8462E-03
            2827            3400     17.7662E-03     16.0164E-03
            2827            3417     15.4355E-03     13.9890E-03
            2827            3418     17.1045E-03     14.8696E-03
            2828             432     18.5474E-03     18.2850E-03
            2828             433     18.4782E-03     18.6151E-03
            2828            3400     17.7662E-03     16.0164E-03
            2828            3418     17.1045E-03     14.8696E-03
            2829             649     98.4720E-03     100.125E-03
            2829             650     94.8688E-03     96.5351E-03
            2829            3401     90.0507E-03     91.9216E-03
            2829            3419     92.3939E-03     94.4071E-03
            2830            3401     90.0507E-03     91.9216E-03
            2830            3402     84.7774E-03     86.7016E-03
            2830            3419     92.3939E-03     94.4071E-03
            2830            3420     86.1435E-03     88.2580E-03
            2831            3402     84.7774E-03     86.7016E-03
            2831            3403     79.1680E-03     80.9921E-03
            2831            3420     86.1435E-03     88.2580E-03
            2831            3421     79.7786E-03     81.8442E-03
            2832            3403     79.1680E-03     80.9921E-03
            2832            3404     73.3233E-03     74.9946E-03
            2832            3421     79.7786E-03     81.8442E-03
            2832            3422     73.3977E-03     75.4089E-03
            2833            3404     73.3233E-03     74.9946E-03
            2833            3405     67.3566E-03     68.9021E-03
            2833            3422     73.3977E-03     75.4089E-03
            2833            3423     67.1594E-03     69.0538E-03
            2834            3405     67.3566E-03     68.9021E-03
            2834            3406     61.4021E-03     62.8228E-03
            2834            3423     67.1594E-03     69.0538E-03
            2834            3424     60.9980E-03     62.7822E-03
            2835            3406     61.4021E-03     62.8228E-03
            2835            3407     55.4739E-03     56.7997E-03
            2835            3424     60.9980E-03     62.7822E-03
            2835            3425     54.9462E-03     56.6351E-03
            2836            3407     55.4739E-03     56.7997E-03
            2836            3408     49.6316E-03     50.8792E-03
            2836            3425     54.9462E-03     56.6351E-03
            2836            3426     48.9903E-03     50.5941E-03
            2837            3408     49.6316E-03     50.8792E-03
            2837            3409     43.8878E-03     45.0759E-03
            2837            3426     48.9903E-03     50.5941E-03
            2837            3427     43.1464E-03     44.6829E-03
            2838            3409     43.8878E-03     45.0759E-03
            2838            3410     38.2934E-03     39.4328E-03
            2838            3427     43.1464E-03     44.6829E-03
            2838            3428     37.4295E-03     38.9041E-03
            2839            3410     38.2934E-03     39.4328E-03
            2839            3411     32.8876E-03     33.9882E-03
            2839            3428     37.4295E-03     38.9041E-03
            2839            3429     31.8915E-03     33.3027E-03
            2840            3411     32.8876E-03     33.9882E-03
            2840            3412     27.7784E-03     28.8324E-03
            2840            3429     31.8915E-03     33.3027E-03
            2840            3430     26.5999E-03     27.9257E-03
            2841            3412     27.7784E-03     28.8324E-03
            2841            3413     23.1112E-03     24.0840E-03
            2841            3430     26.5999E-03     27.9257E-03
            2841            3431     21.7340E-03     22.8980E-03
            2842            3413     23.1112E-03     24.0840E-03
            2842            3414     19.1616E-03     19.9444E-03
            2842            3431     21.7340E-03     22.8980E-03
            2842            3432     17.5898E-03     18.4023E-03
            2843            3414     19.1616E-03     19.9444E-03
            2843            3415     16.3936E-03     16.6865E-03
            2843            3432     17.5898E-03     18.4023E-03
            2843            3433     14.6366E-03     14.7816E-03
            2844            3415     16.3936E-03     16.6865E-03
            2844            3416     15.1074E-03     14.5959E-03
            2844            3433     14.6366E-03     14.7816E-03
            2844            3434     13.5615E-03     12.6799E-03
            2845            3416     15.1074E-03     14.5959E-03
            2845            3417     15.4355E-03     13.9890E-03
            2845            3434     13.5615E-03     12.6799E-03
            2845            3435     14.4580E-03     12.5395E-03
            2846            3417     15.4355E-03     13.9890E-03
            2846            3418     17.1045E-03     14.8696E-03
            2846            3435     14.4580E-03     12.5395E-03
            2846            3436     16.8518E-03     14.3730E-03
            2847             431     18.8713E-03     18.7854E-03
            2847             432     18.5474E-03     18.2850E-03
            2847            3418     17.1045E-03     14.8696E-03
            2847            3436     16.8518E-03     14.3730E-03
            2848             648     101.538E-03     103.445E-03
            2848             649     98.4720E-03     100.125E-03
            2848            3419     92.3939E-03     94.4071E-03
            2848            3437     94.1420E-03     96.2018E-03
            2849            3419     92.3939E-03     94.4071E-03
            2849            3420     86.1435E-03     88.2580E-03
            2849            3437     94.1420E-03     96.2018E-03
            2849            3438     86.6865E-03     88.8450E-03
            2850            3420     86.1435E-03     88.2580E-03
            2850            3421     79.7786E-03     81.8442E-03
            2850            3438     86.6865E-03     88.8450E-03
            2850            3439     79.4654E-03     81.7571E-03
            2851            3421     79.7786E-03     81.8442E-03
            2851            3422     73.3977E-03     75.4089E-03
            2851            3439     79.4654E-03     81.7571E-03
            2851            3440     72.7694E-03     75.0156E-03
            2852            3422     73.3977E-03     75.4089E-03
            2852            3423     67.1594E-03     69.0538E-03
            2852            3440     72.7694E-03     75.0156E-03
            2852            3441     66.3213E-03     68.4909E-03
            2853            3423     67.1594E-03     69.0538E-03
            2853            3424     60.9980E-03     62.7822E-03
            2853            3441     66.3213E-03     68.4909E-03
            2853            3442     60.0894E-03     62.1816E-03
            2854            3424     60.9980E-03     62.7822E-03
            2854            3425     54.9462E-03     56.6351E-03
            2854            3442     60.0894E-03     62.1816E-03
            2854            3443     54.0050E-03     56.0093E-03
            2855            3425     54.9462E-03     56.6351E-03
            2855            3426     48.9903E-03     50.5941E-03
            2855            3443     54.0050E-03     56.0093E-03
            2855            3444     48.0323E-03     49.9704E-03
            2856            3426     48.9903E-03     50.5941E-03
            2856            3427     43.1464E-03     44.6829E-03
            2856            3444     48.0323E-03     49.9704E-03
            2856            3445     42.1661E-03     44.0355E-03
            2857            3427     43.1464E-03     44.6829E-03
            2857            3428     37.4295E-03     38.9041E-03
            2857            3445     42.1661E-03     44.0355E-03
            2857            3446     36.4080E-03     38.2151E-03
            2858            3428     37.4295E-03     38.9041E-03
            2858            3429     31.8915E-03     33.3027E-03
            2858            3446     36.4080E-03     38.2151E-03
            2858            3447     30.7860E-03     32.5154E-03
            2859            3429     31.8915E-03     33.3027E-03
            2859            3430     26.5999E-03     27.9257E-03
            2859            3447     30.7860E-03     32.5154E-03
            2859            3448     25.3776E-03     26.9882E-03
            2860            3430     26.5999E-03     27.9257E-03
            2860            3431     21.7340E-03     22.8980E-03
            2860            3448     25.3776E-03     26.9882E-03
            2860            3449     20.3089E-03     21.7032E-03
            2861            3431     21.7340E-03     22.8980E-03
            2861            3432     17.5898E-03     18.4023E-03
            2861            3449     20.3089E-03     21.7032E-03
            2861            3450     15.9525E-03     16.8829E-03
            2862            3432     17.5898E-03     18.4023E-03
            2862            3433     14.6366E-03     14.7816E-03
            2862            3450     15.9525E-03     16.8829E-03
            2862            3451     12.9941E-03     13.0089E-03
            2863            3433     14.6366E-03     14.7816E-03
            2863            3434     13.5615E-03     12.6799E-03
            2863            3451     12.9941E-03     13.0089E-03
            2863            3452     12.1928E-03     10.9648E-03
            2864            3434     13.5615E-03     12.6799E-03
            2864            3435     14.4580E-03     12.5395E-03
            2864            3452     12.1928E-03     10.9648E-03
            2864            3453     13.8673E-03     11.6590E-03
            2865            3435     14.4580E-03     12.5395E-03
            2865            3436     16.8518E-03     14.3730E-03
            2865            3453     13.8673E-03     11.6590E-03
            2865            3454     17.2577E-03     14.5522E-03
            2866             430     19.8462E-03     19.7199E-03
            2866             431     18.8713E-03     18.7854E-03
            2866            3436     16.8518E-03     14.3730E-03
            2866            3454     17.2577E-03     14.5522E-03
            2867             647     104.258E-03     105.921E-03
            2867             648     101.538E-03     103.445E-03
            2867            3437     94.1420E-03     96.2018E-03
            2867            3455     94.7400E-03     96.6930E-03
            2868            3437     94.1420E-03     96.2018E-03
            2868            3438     86.6865E-03     88.8450E-03
            2868            3455     94.7400E-03     96.6930E-03
            2868            3456     85.8555E-03     88.2150E-03
            2869            3438     86.6865E-03     88.8450E-03
            2869            3439     79.4654E-03     81.7571E-03
            2869            3456     85.8555E-03     88.2150E-03
            2869            3457     78.3239E-03     80.7518E-03
            2870            3439     79.4654E-03     81.7571E-03
            2870            3440     72.7694E-03     75.0156E-03
            2870            3457     78.3239E-03     80.7518E-03
            2870            3458     71.4145E-03     73.8289E-03
            2871            3440     72.7694E-03     75.0156E-03
            2871            3441     66.3213E-03     68.4909E-03
            2871            3458     71.4145E-03     73.8289E-03
            2871            3459     64.9414E-03     67.3351E-03
            2872            3441     66.3213E-03     68.4909E-03
            2872            3442     60.0894E-03     62.1816E-03
            2872            3459     64.9414E-03     67.3351E-03
            2872            3460     58.7487E-03     61.0824E-03
            2873            3442     60.0894E-03     62.1816E-03
            2873            3443     54.0050E-03     56.0093E-03
            2873            3460     58.7487E-03     61.0824E-03
            2873            3461     52.7135E-03     55.0098E-03
            2874            3443     54.0050E-03     56.0093E-03
            2874            3444     48.0323E-03     49.9704E-03
            2874            3461     52.7135E-03     55.0098E-03
            2874            3462     46.8049E-03     49.0493E-03
            2875            3444     48.0323E-03     49.9704E-03
            2875            3445     42.1661E-03     44.0355E-03
            2875            3462     46.8049E-03     49.0493E-03
            2875            3463     40.9752E-03     43.1775E-03
            2876            3445     42.1661E-03     44.0355E-03
            2876            3446     36.4080E-03     38.2151E-03
            2876            3463     40.9752E-03     43.1775E-03
            2876            3464     35.2320E-03     37.3769E-03
            2877            3446     36.4080E-03     38.2151E-03
            2877            3447     30.7860E-03     32.5154E-03
            2877            3464     35.2320E-03     37.3769E-03
            2877            3465     29.5810E-03     31.6507E-03
            2878            3447     30.7860E-03     32.5154E-03
            2878            3448     25.3776E-03     26.9882E-03
            2878            3465     29.5810E-03     31.6507E-03
            2878            3466     24.0696E-03     26.0134E-03
            2879            3448     25.3776E-03     26.9882E-03
            2879            3449     20.3089E-03     21.7032E-03
            2879            3466     24.0696E-03     26.0134E-03
            2879            3467     18.8405E-03     20.5362E-03
            2880            3449     20.3089E-03     21.7032E-03
            2880            3450     15.9525E-03     16.8829E-03
            2880            3467     18.8405E-03     20.5362E-03
            2880            3468     14.1877E-03     15.3778E-03
            2881            3450     15.9525E-03     16.8829E-03
            2881            3451     12.9941E-03     13.0089E-03
            2881            3468     14.1877E-03     15.3778E-03
            2881            3469     11.1472E-03     11.2115E-03
            2882            3451     12.9941E-03     13.0089E-03
            2882            3452     12.1928E-03     10.9648E-03
            2882            3469     11.1472E-03     11.2115E-03
            2882            3470     11.1450E-03     9.62693E-03
            2883            3452     12.1928E-03     10.9648E-03
            2883            3453     13.8673E-03     11.6590E-03
            2883            3470     11.1450E-03     9.62693E-03
            2883            3471     13.9575E-03     11.3754E-03
            2884            3453     13.8673E-03     11.6590E-03
            2884            3454     17.2577E-03     14.5522E-03
            2884            3471     13.9575E-03     11.3754E-03
            2884            3472     18.1239E-03     15.4411E-03
            2885             429     21.3143E-03     21.3114E-03
            2885             430     19.8462E-03     19.7199E-03
            2885            3454     17.2577E-03     14.5522E-03
            2885            3472     18.1239E-03     15.4411E-03
            2886             646     104.976E-03     106.480E-03
            2886             647     104.258E-03     105.921E-03
            2886            3455     94.7400E-03     96.6930E-03
            2886            3473     92.9320E-03     95.2330E-03
            2887            3455     94.7400E-03     96.6930E-03
            2887            3456     85.8555E-03     88.2150E-03
            2887            3473     92.9320E-03     95.2330E-03
            2887            3474     83.9774E-03     86.4462E-03
            2888            3456     85.8555E-03     88.2150E-03
            2888            3457     78.3239E-03     80.7518E-03
            2888            3474     83.9774E-03     86.4462E-03
            2888            3475     76.3761E-03     78.8627E-03
            2889            3457     78.3239E-03     80.7518E-03
            2889            3458     71.4145E-03     73.8289E-03
            2889            3475     76.3761E-03     78.8627E-03
            2889            3476     69.5247E-03     72.0637E-03
            2890            3458     71.4145E-03     73.8289E-03
            2890            3459     64.9414E-03     67.3351E-03
            2890            3476     69.5247E-03     72.0637E-03
            2890            3477     63.1873E-03     65.7247E-03
            2891            3459     64.9414E-03     67.3351E-03
            2891            3460     58.7487E-03     61.0824E-03
            2891            3477     63.1873E-03     65.7247E-03
            2891            3478     57.1003E-03     59.6584E-03
            2892            3460     58.7487E-03     61.0824E-03
            2892            3461     52.7135E-03     55.0098E-03
            2892            3478     57.1003E-03     59.6584E-03
            2892            3479     51.2019E-03     53.7568E-03
            2893            3461     52.7135E-03     55.0098E-03
            2893            3462     46.8049E-03     49.0493E-03
            2893            3479     51.2019E-03     53.7568E-03
            2893            3480     45.3901E-03     47.9458E-03
            2894            3462     46.8049E-03     49.0493E-03
            2894            3463     40.9752E-03     43.1775E-03
            2894            3480     45.3901E-03     47.9458E-03
            2894            3481     39.6548E-03     42.1928E-03
            2895            3463     40.9752E-03     43.1775E-03
            2895            3464     35.2320E-03     37.3769E-03
            2895            3481     39.6548E-03     42.1928E-03
            2895            3482     33.9586E-03     36.4678E-03
            2896            3464     35.2320E-03     37.3769E-03
            2896            3465     29.5810E-03     31.6507E-03
            2896            3482     33.9586E-03     36.4678E-03
            2896            3483     28.3182E-03     30.7667E-03
            2897            3465     29.5810E-03     31.6507E-03
            2897            3466     24.0696E-03     26.0134E-03
            2897            3483     28.3182E-03     30.7667E-03
            2897            3484     22.7424E-03     25.0814E-03
            2898            3466     24.0696E-03     26.0134E-03
            2898            3467     18.8405E-03     20.5362E-03
            2898            3484     22.7424E-03     25.0814E-03
            2898            3485     17.3154E-03     19.4401E-03
            2899            3467     18.8405E-03     20.5362E-03
            2899            3468     14.1877E-03     15.3778E-03
            2899            3485     17.3154E-03     19.4401E-03
            2899            3486     12.3599E-03     13.9809E-03
            2900            3468     14.1877E-03     15.3778E-03
            2900            3469     11.1472E-03     11.2115E-03
            2900            3486     12.3599E-03     13.9809E-03
            2900            3487     8.89673E-03     9.30233E-03
            2901            3469     11.1472E-03     11.2115E-03
            2901            3470     11.1450E-03     9.62693E-03
            2901            3487     8.89673E-03     9.30233E-03
            2901            3488     9.32943E-03     7.92045E-03
            2902            3470     11.1450E-03     9.62693E-03
            2902            3471     13.9575E-03     11.3754E-03
            2902            3488     9.32943E-03     7.92045E-03
            2902            3489     14.1749E-03     11.5544E-03
            2903            3471     13.9575E-03     11.3754E-03
            2903            3472     18.1239E-03     15.4411E-03
            2903            3489     14.1749E-03     11.5544E-03
            2903            3490     20.2705E-03     17.2221E-03
            2904             428     23.9261E-03     23.9631E-03
            2904             429     21.3143E-03     21.3114E-03
            2904            3472     18.1239E-03     15.4411E-03
            2904            3490     20.2705E-03     17.2221E-03
            2905             645     101.261E-03     103.808E-03
            2905             646     104.976E-03     106.480E-03
            2905            3473     92.9320E-03     95.2330E-03
            2905            3491     89.8371E-03     92.2551E-03
            2906            3473     92.9320E-03     95.2330E-03
            2906            3474     83.9774E-03     86.4462E-03
            2906            3491     89.8371E-03     92.2551E-03
            2906            3492     81.3881E-03     83.7653E-03
            2907            3474     83.9774E-03     86.4462E-03
            2907            3475     76.3761E-03     78.8627E-03
            2907            3492     81.3881E-03     83.7653E-03
            2907            3493     73.9900E-03     76.4527E-03
            2908            3475     76.3761E-03     78.8627E-03
            2908            3476     69.5247E-03     72.0637E-03
            2908            3493     73.9900E-03     76.4527E-03
            2908            3494     67.4291E-03     69.9915E-03
            2909            3476     69.5247E-03     72.0637E-03
            2909            3477     63.1873E-03     65.7247E-03
            2909            3494     67.4291E-03     69.9915E-03
            2909            3495     61.2495E-03     63.9185E-03
            2910            3477     63.1873E-03     65.7247E-03
            2910            3478     57.1003E-03     59.6584E-03
            2910            3495     61.2495E-03     63.9185E-03
            2910            3496     55.3579E-03     58.1173E-03
            2911            3478     57.1003E-03     59.6584E-03
            2911            3479     51.2019E-03     53.7568E-03
            2911            3496     55.3579E-03     58.1173E-03
            2911            3497     49.5983E-03     52.4276E-03
            2912            3479     51.2019E-03     53.7568E-03
            2912            3480     45.3901E-03     47.9458E-03
            2912            3497     49.5983E-03     52.4276E-03
            2912            3498     43.9357E-03     46.8131E-03
            2913            3480     45.3901E-03     47.9458E-03
            2913            3481     39.6548E-03     42.1928E-03
            2913            3498     43.9357E-03     46.8131E-03
            2913            3499     38.3065E-03     41.2101E-03
            2914            3481     39.6548E-03     42.1928E-03
            2914            3482     33.9586E-03     36.4678E-03
            2914            3499     38.3065E-03     41.2101E-03
            2914            3500     32.7069E-03     35.6114E-03
            2915            3482     33.9586E-03     36.4678E-03
            2915            3483     28.3182E-03     30.7667E-03
            2915            3500     32.7069E-03     35.6114E-03
            2915            3501     27.1022E-03     29.9792E-03
            2916            3483     28.3182E-03     30.7667E-03
            2916            3484     22.7424E-03     25.0814E-03
            2916            3501     27.1022E-03     29.9792E-03
            2916            3502     21.5146E-03     24.3161E-03
            2917            3484     22.7424E-03     25.0814E-03
            2917            3485     17.3154E-03     19.4401E-03
            2917            3502     21.5146E-03     24.3161E-03
            2917            3503     15.9318E-03     18.5838E-03
            2918            3485     17.3154E-03     19.4401E-03
            2918            3486     12.3599E-03     13.9809E-03
            2918            3503     15.9318E-03     18.5838E-03
            2918            3504     10.5307E-03     12.8406E-03
            2919            3486     12.3599E-03     13.9809E-03
            2919            3487     8.89673E-03     9.30233E-03
            2919            3504     10.5307E-03     12.8406E-03
            2919            3505     6.36989E-03     7.49705E-03
            2920            3487     8.89673E-03     9.30233E-03
            2920            3488     9.32943E-03     7.92045E-03
            2920            3505     6.36989E-03     7.49705E-03
            2920            3506     6.59042E-03     5.69332E-03
            2921            3488     9.32943E-03     7.92045E-03
            2921            3489     14.1749E-03     11.5544E-03
            2921            3506     6.59042E-03     5.69332E-03
            2921            3507     12.3804E-03     10.4891E-03
            2922            3489     14.1749E-03     11.5544E-03
            2922            3490     20.2705E-03     17.2221E-03
            2922            3507     12.3804E-03     10.4891E-03
            2922            3508     21.4729E-03     19.7975E-03
            2923             427     28.6594E-03     29.0209E-03
            2923             428     23.9261E-03     23.9631E-03
            2923            3490     20.2705E-03     17.2221E-03
            2923            3508     21.4729E-03     19.7975E-03
            2924             644     104.704E-03     105.045E-03
            2924             645     101.261E-03     103.808E-03
            2924            3491     89.8371E-03     92.2551E-03
            2924            3509     97.5725E-03     97.7595E-03
            2925            3491     89.8371E-03     92.2551E-03
            2925            3492     81.3881E-03     83.7653E-03
            2925            3509     97.5725E-03     97.7595E-03
            2925            3510     90.9247E-03     91.3869E-03
            2926            3492     81.3881E-03     83.7653E-03
            2926            3493     73.9900E-03     76.4527E-03
            2926            3510     90.9247E-03     91.3869E-03
            2926            3511     84.7880E-03     85.4812E-03
            2927            3493     73.9900E-03     76.4527E-03
            2927            3494     67.4291E-03     69.9915E-03
            2927            3511     84.7880E-03     85.4812E-03
            2927            3512     78.7294E-03     79.7542E-03
            2928            3494     67.4291E-03     69.9915E-03
            2928            3495     61.2495E-03     63.9185E-03
            2928            3512     78.7294E-03     79.7542E-03
            2928            3513     72.7953E-03     74.0319E-03
            2929            3495     61.2495E-03     63.9185E-03
            2929            3496     55.3579E-03     58.1173E-03
            2929            3513     72.7953E-03     74.0319E-03
            2929            3514     66.8527E-03     68.3121E-03
            2930            3496     55.3579E-03     58.1173E-03
            2930            3497     49.5983E-03     52.4276E-03
            2930            3514     66.8527E-03     68.3121E-03
            2930            3515     60.9392E-03     62.5319E-03
            2931            3497     49.5983E-03     52.4276E-03
            2931            3498     43.9357E-03     46.8131E-03
            2931            3515     60.9392E-03     62.5319E-03
            2931            3516     55.0192E-03     56.7321E-03
            2932            3498     43.9357E-03     46.8131E-03
            2932            3499     38.3065E-03     41.2101E-03
            2932            3516     55.0192E-03     56.7321E-03
            2932            3517     49.1271E-03     50.9030E-03
            2933            3499     38.3065E-03     41.2101E-03
            2933            3500     32.7069E-03     35.6114E-03
            2933            3517     49.1271E-03     50.9030E-03
            2933            3518     43.2750E-03     45.0920E-03
            2934            3500     32.7069E-03     35.6114E-03
            2934            3501     27.1022E-03     29.9792E-03
            2934            3518     43.2750E-03     45.0920E-03
            2934            3519     37.5000E-03     39.3133E-03
            2935            3501     27.1022E-03     29.9792E-03
            2935            3502     21.5146E-03     24.3161E-03
            2935            3519     37.5000E-03     39.3133E-03
            2935            3520     31.8525E-03     33.6270E-03
            2936            3502     21.5146E-03     24.3161E-03
            2936            3503     15.9318E-03     18.5838E-03
            2936            3520     31.8525E-03     33.6270E-03
            2936            3521     26.3929E-03     28.0744E-03
            2937            3503     15.9318E-03     18.5838E-03
            2937            3504     10.5307E-03     12.8406E-03
            2937            3521     26.3929E-03     28.0744E-03
            2937            3522     21.2151E-03     22.7436E-03
            2938            3504     10.5307E-03     12.8406E-03
            2938            3505     6.36989E-03     7.49705E-03
            2938            3522     21.2151E-03     22.7436E-03
            2938            3523     16.9037E-03     17.9214E-03
            2939            3505     6.36989E-03     7.49705E-03
            2939            3506     6.59042E-03     5.69332E-03
            2939            3523     16.9037E-03     17.9214E-03
            2939            3524     15.5229E-03     15.5920E-03
            2940            3506     6.59042E-03     5.69332E-03
            2940            3507     12.3804E-03     10.4891E-03
            2940            3524     15.5229E-03     15.5920E-03
            2940            3525     17.0406E-03     17.4883E-03
            2941            3507     12.3804E-03     10.4891E-03
            2941            3508     21.4729E-03     19.7975E-03
            2941            3525     17.0406E-03     17.4883E-03
            2941            3526     20.8570E-03     25.0565E-03
            2942             426     29.5649E-03     32.7252E-03
            2942             427     28.6594E-03     29.0209E-03
            2942            3508     21.4729E-03     19.7975E-03
            2942            3526     20.8570E-03     25.0565E-03
            2943             643     114.531E-03     113.760E-03
            2943             644     104.704E-03     105.045E-03
            2943            3509     97.5725E-03     97.7595E-03
            2943            3527     109.819E-03     109.000E-03
            2944            3509     97.5725E-03     97.7595E-03
            2944            3510     90.9247E-03     91.3869E-03
            2944            3527     109.819E-03     109.000E-03
            2944            3528     104.603E-03     103.965E-03
            2945            3510     90.9247E-03     91.3869E-03
            2945            3511     84.7880E-03     85.4812E-03
            2945            3528     104.603E-03     103.965E-03
            2945            3529     98.8798E-03     98.4834E-03
            2946            3511     84.7880E-03     85.4812E-03
            2946            3512     78.7294E-03     79.7542E-03
            2946            3529     98.8798E-03     98.4834E-03
            2946            3530     92.8362E-03     92.6821E-03
            2947            3512     78.7294E-03     79.7542E-03
            2947            3513     72.7953E-03     74.0319E-03
            2947            3530     92.8362E-03     92.6821E-03
            2947            3531     86.5257E-03     86.5978E-03
            2948            3513     72.7953E-03     74.0319E-03
            2948            3514     66.8527E-03     68.3121E-03
            2948            3531     86.5257E-03     86.5978E-03
            2948            3532     80.0555E-03     80.3025E-03
            2949            3514     66.8527E-03     68.3121E-03
            2949            3515     60.9392E-03     62.5319E-03
            2949            3532     80.0555E-03     80.3025E-03
            2949            3533     73.4697E-03     73.8691E-03
            2950            3515     60.9392E-03     62.5319E-03
            2950            3516     55.0192E-03     56.7321E-03
            2950            3533     73.4697E-03     73.8691E-03
            2950            3534     66.8575E-03     67.3567E-03
            2951            3516     55.0192E-03     56.7321E-03
            2951            3517     49.1271E-03     50.9030E-03
            2951            3534     66.8575E-03     67.3567E-03
            2951            3535     60.2598E-03     60.8360E-03
            2952            3517     49.1271E-03     50.9030E-03
            2952            3518     43.2750E-03     45.0920E-03
            2952            3535     60.2598E-03     60.8360E-03
            2952            3536     53.7663E-03     54.3788E-03
            2953            3518     43.2750E-03     45.0920E-03
            2953            3519     37.5000E-03     39.3133E-03
            2953            3536     53.7663E-03     54.3788E-03
            2953            3537     47.4475E-03     48.0676E-03
            2954            3519     37.5000E-03     39.3133E-03
            2954            3520     31.8525E-03     33.6270E-03
            2954            3537     47.4475E-03     48.0676E-03
            2954            3538     41.4215E-03     42.0241E-03
            2955            3520     31.8525E-03     33.6270E-03
            2955            3521     26.3929E-03     28.0744E-03
            2955            3538     41.4215E-03     42.0241E-03
            2955            3539     35.8411E-03     36.4011E-03
            2956            3521     26.3929E-03     28.0744E-03
            2956            3522     21.2151E-03     22.7436E-03
            2956            3539     35.8411E-03     36.4011E-03
            2956            3540     30.9008E-03     31.4649E-03
            2957            3522     21.2151E-03     22.7436E-03
            2957            3523     16.9037E-03     17.9214E-03
            2957            3540     30.9008E-03     31.4649E-03
            2957            3541     26.8789E-03     27.5668E-03
            2958            3523     16.9037E-03     17.9214E-03
            2958            3524     15.5229E-03     15.5920E-03
            2958            3541     26.8789E-03     27.5668E-03
            2958            3542     24.0401E-03     25.2401E-03
            2959            3524     15.5229E-03     15.5920E-03
            2959            3525     17.0406E-03     17.4883E-03
            2959            3542     24.0401E-03     25.2401E-03
            2959            3543     22.4624E-03     25.0989E-03
            2960            3525     17.0406E-03     17.4883E-03
            2960            3526     20.8570E-03     25.0565E-03
            2960            3543     22.4624E-03     25.0989E-03
            2960            3544     23.3995E-03     27.4652E-03
            2961             425     27.9159E-03     31.8728E-03
            2961             426     29.5649E-03     32.7252E-03
            2961            3526     20.8570E-03     25.0565E-03
            2961            3544     23.3995E-03     27.4652E-03
            2962             642     121.106E-03     122.146E-03
            2962             643     114.531E-03     113.760E-03
            2962            3527     109.819E-03     109.000E-03
            2962            3545     115.490E-03     116.490E-03
            2963            3527     109.819E-03     109.000E-03
            2963            3528     104.603E-03     103.965E-03
            2963            3545     115.490E-03     116.490E-03
            2963            3546     109.485E-03     110.259E-03
            2964            3528     104.603E-03     103.965E-03
            2964            3529     98.8798E-03     98.4834E-03
            2964            3546     109.485E-03     110.259E-03
            2964            3547     102.943E-03     103.620E-03
            2965            3529     98.8798E-03     98.4834E-03
            2965            3530     92.8362E-03     92.6821E-03
            2965            3547     102.943E-03     103.620E-03
            2965            3548     96.0482E-03     96.7177E-03
            2966            3530     92.8362E-03     92.6821E-03
            2966            3531     86.5257E-03     86.5978E-03
            2966            3548     96.0482E-03     96.7177E-03
            2966            3549     88.9300E-03     89.6102E-03
            2967            3531     86.5257E-03     86.5978E-03
            2967            3532     80.0555E-03     80.3025E-03
            2967            3549     88.9300E-03     89.6102E-03
            2967            3550     81.6604E-03     82.3952E-03
            2968            3532     80.0555E-03     80.3025E-03
            2968            3533     73.4697E-03     73.8691E-03
            2968            3550     81.6604E-03     82.3952E-03
            2968            3551     74.3461E-03     75.1135E-03
            2969            3533     73.4697E-03     73.8691E-03
            2969            3534     66.8575E-03     67.3567E-03
            2969            3551     74.3461E-03     75.1135E-03
            2969            3552     67.0183E-03     67.8314E-03
            2970            3534     66.8575E-03     67.3567E-03
            2970            3535     60.2598E-03     60.8360E-03
            2970            3552     67.0183E-03     67.8314E-03
            2970            3553     59.7632E-03     60.5954E-03
            2971            3535     60.2598E-03     60.8360E-03
            2971            3536     53.7663E-03     54.3788E-03
            2971            3553     59.7632E-03     60.5954E-03
            2971            3554     52.6169E-03     53.4663E-03
            2972            3536     53.7663E-03     54.3788E-03
            2972            3537     47.4475E-03     48.0676E-03
            2972            3554     52.6169E-03     53.4663E-03
            2972            3555     45.6804E-03     46.5275E-03
            2973            3537     47.4475E-03     48.0676E-03
            2973            3538     41.4215E-03     42.0241E-03
            2973            3555     45.6804E-03     46.5275E-03
            2973            3556     39.0489E-03     39.8957E-03
            2974            3538     41.4215E-03     42.0241E-03
            2974            3539     35.8411E-03     36.4011E-03
            2974            3556     39.0489E-03     39.8957E-03
            2974            3557     32.9149E-03     33.7746E-03
            2975            3539     35.8411E-03     36.4011E-03
            2975            3540     30.9008E-03     31.4649E-03
            2975            3557     32.9149E-03     33.7746E-03
            2975            3558     27.5534E-03     28.4928E-03
            2976            3540     30.9008E-03     31.4649E-03
            2976            3541     26.8789E-03     27.5668E-03
            2976            3558     27.5534E-03     28.4928E-03
            2976            3559     23.4625E-03     24.5777E-03
            2977            3541     26.8789E-03     27.5668E-03
            2977            3542     24.0401E-03     25.2401E-03
            2977            3559     23.4625E-03     24.5777E-03
            2977            3560     21.1704E-03     22.6821E-03
            2978            3542     24.0401E-03     25.2401E-03
            2978            3543     22.4624E-03     25.0989E-03
            2978            3560     21.1704E-03     22.6821E-03
            2978            3561     21.7791E-03     23.0387E-03
            2979            3543     22.4624E-03     25.0989E-03
            2979            3544     23.3995E-03     27.4652E-03
            2979            3561     21.7791E-03     23.0387E-03
            2979            3562     25.2008E-03     24.2083E-03
            2980             424     27.2483E-03     28.1801E-03
            2980             425     27.9159E-03     31.8728E-03
            2980            3544     23.3995E-03     27.4652E-03
            2980            3562     25.2008E-03     24.2083E-03
            2981             641     126.372E-03     128.366E-03
            2981             642     121.106E-03     122.146E-03
            2981            3545     115.490E-03     116.490E-03
            2981            3563     120.390E-03     122.312E-03
            2982            3545     115.490E-03     116.490E-03
            2982            3546     109.485E-03     110.259E-03
            2982            3563     120.390E-03     122.312E-03
            2982            3564     113.570E-03     115.388E-03
            2983            3546     109.485E-03     110.259E-03
            2983            3547     102.943E-03     103.620E-03
            2983            3564     113.570E-03     115.388E-03
            2983            3565     106.369E-03     107.947E-03
            2984            3547     102.943E-03     103.620E-03
            2984            3548     96.0482E-03     96.7177E-03
            2984            3565     106.369E-03     107.947E-03
            2984            3566     98.7724E-03     100.191E-03
            2985            3548     96.0482E-03     96.7177E-03
            2985            3549     88.9300E-03     89.6102E-03
            2985            3566     98.7724E-03     100.191E-03
            2985            3567     90.9753E-03     92.2967E-03
            2986            3549     88.9300E-03     89.6102E-03
            2986            3550     81.6604E-03     82.3952E-03
            2986            3567     90.9753E-03     92.2967E-03
            2986            3568     83.0889E-03     84.3284E-03
            2987            3550     81.6604E-03     82.3952E-03
            2987            3551     74.3461E-03     75.1135E-03
            2987            3568     83.0889E-03     84.3284E-03
            2987            3569     75.1641E-03     76.3723E-03
            2988            3551     74.3461E-03     75.1135E-03
            2988            3552     67.0183E-03     67.8314E-03
            2988            3569     75.1641E-03     76.3723E-03
            2988            3570     67.2891E-03     68.4616E-03
            2989            3552     67.0183E-03     67.8314E-03
            2989            3553     59.7632E-03     60.5954E-03
            2989            3570     67.2891E-03     68.4616E-03
            2989            3571     59.4811E-03     60.6417E-03
            2990            3553     59.7632E-03     60.5954E-03
            2990            3554     52.6169E-03     53.4663E-03
            2990            3571     59.4811E-03     60.6417E-03
            2990            3572     51.8198E-03     52.9623E-03
            2991            3554     52.6169E-03     53.4663E-03
            2991            3555     45.6804E-03     46.5275E-03
            2991            3572     51.8198E-03     52.9623E-03
            2991            3573     44.3504E-03     45.4908E-03
            2992            3555     45.6804E-03     46.5275E-03
            2992            3556     39.0489E-03     39.8957E-03
            2992            3573     44.3504E-03     45.4908E-03
            2992            3574     37.2111E-03     38.3533E-03
            2993            3556     39.0489E-03     39.8957E-03
            2993            3557     32.9149E-03     33.7746E-03
            2993            3574     37.2111E-03     38.3533E-03
            2993            3575     30.5856E-03     31.7565E-03
            2994            3557     32.9149E-03     33.7746E-03
            2994            3558     27.5534E-03     28.4928E-03
            2994            3575     30.5856E-03     31.7565E-03
            2994            3576     24.8814E-03     26.0820E-03
            2995            3558     27.5534E-03     28.4928E-03
            2995            3559     23.4625E-03     24.5777E-03
            2995            3576     24.8814E-03     26.0820E-03
            2995            3577     20.7707E-03     21.9456E-03
            2996            3559     23.4625E-03     24.5777E-03
            2996            3560     21.1704E-03     22.6821E-03
            2996            3577     20.7707E-03     21.9456E-03
            2996            3578     19.3215E-03     19.9939E-03
            2997            3560     21.1704E-03     22.6821E-03
            2997            3561     21.7791E-03     23.0387E-03
            2997            3578     19.3215E-03     19.9939E-03
            2997            3579     20.8944E-03     20.0820E-03
            2998            3561     21.7791E-03     23.0387E-03
            2998            3562     25.2008E-03     24.2083E-03
            2998            3579     20.8944E-03     20.0820E-03
            2998            3580     23.7219E-03     21.5854E-03
            2999             423     25.8876E-03     25.9371E-03
            2999             424     27.2483E-03     28.1801E-03
            2999            3562     25.2008E-03     24.2083E-03
            2999            3580     23.7219E-03     21.5854E-03
            3000             640     130.786E-03     133.062E-03
            3000             641     126.372E-03     128.366E-03
            3000            3563     120.390E-03     122.312E-03
            3000            3581     124.115E-03     126.612E-03
            3001            3563     120.390E-03     122.312E-03
            3001            3564     113.570E-03     115.388E-03
            3001            3581     124.115E-03     126.612E-03
            3001            3582     116.811E-03     119.180E-03
            3002            3564     113.570E-03     115.388E-03
            3002            3565     106.369E-03     107.947E-03
            3002            3582     116.811E-03     119.180E-03
            3002            3583     108.902E-03     111.135E-03
            3003            3565     106.369E-03     107.947E-03
            3003            3566     98.7724E-03     100.191E-03
            3003            3583     108.902E-03     111.135E-03
            3003            3584     100.738E-03     102.772E-03
            3004            3566     98.7724E-03     100.191E-03
            3004            3567     90.9753E-03     92.2967E-03
            3004            3584     100.738E-03     102.772E-03
            3004            3585     92.4127E-03     94.2701E-03
            3005            3567     90.9753E-03     92.2967E-03
            3005            3568     83.0889E-03     84.3284E-03
            3005            3585     92.4127E-03     94.2701E-03
            3005            3586     84.0321E-03     85.7675E-03
            3006            3568     83.0889E-03     84.3284E-03
            3006            3569     75.1641E-03     76.3723E-03
            3006            3586     84.0321E-03     85.7675E-03
            3006            3587     75.6877E-03     77.3144E-03
            3007            3569     75.1641E-03     76.3723E-03
            3007            3570     67.2891E-03     68.4616E-03
            3007            3587     75.6877E-03     77.3144E-03
            3007            3588     67.3913E-03     68.9503E-03
            3008            3570     67.2891E-03     68.4616E-03
            3008            3571     59.4811E-03     60.6417E-03
            3008            3588     67.3913E-03     68.9503E-03
            3008            3589     59.2036E-03     60.7055E-03
            3009            3571     59.4811E-03     60.6417E-03
            3009            3572     51.8198E-03     52.9623E-03
            3009            3589     59.2036E-03     60.7055E-03
            3009            3590     51.1386E-03     52.6101E-03
            3010            3572     51.8198E-03     52.9623E-03
            3010            3573     44.3504E-03     45.4908E-03
            3010            3590     51.1386E-03     52.6101E-03
            3010            3591     43.2805E-03     44.7307E-03
            3011            3573     44.3504E-03     45.4908E-03
            3011            3574     37.2111E-03     38.3533E-03
            3011            3591     43.2805E-03     44.7307E-03
            3011            3592     35.7143E-03     37.1643E-03
            3012            3574     37.2111E-03     38.3533E-03
            3012            3575     30.5856E-03     31.7565E-03
            3012            3592     35.7143E-03     37.1643E-03
            3012            3593     28.6800E-03     30.1219E-03
            3013            3575     30.5856E-03     31.7565E-03
            3013            3576     24.8814E-03     26.0820E-03
            3013            3593     28.6800E-03     30.1219E-03
            3013            3594     22.6363E-03     23.9792E-03
            3014            3576     24.8814E-03     26.0820E-03
            3014            3577     20.7707E-03     21.9456E-03
            3014            3594     22.6363E-03     23.9792E-03
            3014            3595     18.4910E-03     19.3931E-03
            3015            3577     20.7707E-03     21.9456E-03
            3015            3578     19.3215E-03     19.9939E-03
            3015            3595     18.4910E-03     19.3931E-03
            3015            3596     17.3721E-03     17.1159E-03
            3016            3578     19.3215E-03     19.9939E-03
            3016            3579     20.8944E-03     20.0820E-03
            3016            3596     17.3721E-03     17.1159E-03
            3016            3597     19.0891E-03     17.4202E-03
            3017            3579     20.8944E-03     20.0820E-03
            3017            3580     23.7219E-03     21.5854E-03
            3017            3597     19.0891E-03     17.4202E-03
            3017            3598     22.6426E-03     19.8599E-03
            3018             422     25.3643E-03     25.6188E-03
            3018             423     25.8876E-03     25.9371E-03
            3018            3580     23.7219E-03     21.5854E-03
            3018            3598     22.6426E-03     19.8599E-03
            3019             639     134.523E-03     136.849E-03
            3019             640     130.786E-03     133.062E-03
            3019            3581     124.115E-03     126.612E-03
            3019            3599     127.096E-03     129.740E-03
            3020            3581     124.115E-03     126.612E-03
            3020            3582     116.811E-03     119.180E-03
            3020            3599     127.096E-03     129.740E-03
            3020            3600     118.999E-03     121.739E-03
            3021            3582     116.811E-03     119.180E-03
            3021            3583     108.902E-03     111.135E-03
            3021            3600     118.999E-03     121.739E-03
            3021            3601     110.510E-03     113.142E-03
            3022            3583     108.902E-03     111.135E-03
            3022            3584     100.738E-03     102.772E-03
            3022            3601     110.510E-03     113.142E-03
            3022            3602     101.811E-03     104.273E-03
            3023            3584     100.738E-03     102.772E-03
            3023            3585     92.4127E-03     94.2701E-03
            3023            3602     101.811E-03     104.273E-03
            3023            3603     93.0599E-03     95.3604E-03
            3024            3585     92.4127E-03     94.2701E-03
            3024            3586     84.0321E-03     85.7675E-03
            3024            3603     93.0599E-03     95.3604E-03
            3024            3604     84.3664E-03     86.5063E-03
            3025            3586     84.0321E-03     85.7675E-03
            3025            3587     75.6877E-03     77.3144E-03
            3025            3604     84.3664E-03     86.5063E-03
            3025            3605     75.7303E-03     77.7460E-03
            3026            3587     75.6877E-03     77.3144E-03
            3026            3588     67.3913E-03     68.9503E-03
            3026            3605     75.7303E-03     77.7460E-03
            3026            3606     67.1930E-03     69.1079E-03
            3027            3588     67.3913E-03     68.9503E-03
            3027            3589     59.2036E-03     60.7055E-03
            3027            3606     67.1930E-03     69.1079E-03
            3027            3607     58.7505E-03     60.5938E-03
            3028            3589     59.2036E-03     60.7055E-03
            3028            3590     51.1386E-03     52.6101E-03
            3028            3607     58.7505E-03     60.5938E-03
            3028            3608     50.4425E-03     52.2339E-03
            3029            3590     51.1386E-03     52.6101E-03
            3029            3591     43.2805E-03     44.7307E-03
            3029            3608     50.4425E-03     52.2339E-03
            3029            3609     42.2962E-03     44.0576E-03
            3030            3591     43.2805E-03     44.7307E-03
            3030            3592     35.7143E-03     37.1643E-03
            3030            3609     42.2962E-03     44.0576E-03
            3030            3610     34.4285E-03     36.1616E-03
            3031            3592     35.7143E-03     37.1643E-03
            3031            3593     28.6800E-03     30.1219E-03
            3031            3610     34.4285E-03     36.1616E-03
            3031            3611     27.0323E-03     28.7005E-03
            3032            3593     28.6800E-03     30.1219E-03
            3032            3594     22.6363E-03     23.9792E-03
            3032            3611     27.0323E-03     28.7005E-03
            3032            3612     20.6117E-03     22.0369E-03
            3033            3594     22.6363E-03     23.9792E-03
            3033            3595     18.4910E-03     19.3931E-03
            3033            3612     20.6117E-03     22.0369E-03
            3033            3613     16.2998E-03     16.8900E-03
            3034            3595     18.4910E-03     19.3931E-03
            3034            3596     17.3721E-03     17.1159E-03
            3034            3613     16.2998E-03     16.8900E-03
            3034            3614     15.2670E-03     14.3725E-03
            3035            3596     17.3721E-03     17.1159E-03
            3035            3597     19.0891E-03     17.4202E-03
            3035            3614     15.2670E-03     14.3725E-03
            3035            3615     17.6111E-03     15.2355E-03
            3036            3597     19.0891E-03     17.4202E-03
            3036            3598     22.6426E-03     19.8599E-03
            3036            3615     17.6111E-03     15.2355E-03
            3036            3616     22.0253E-03     18.7335E-03
            3037             421     25.5427E-03     25.3927E-03
            3037             422     25.3643E-03     25.6188E-03
            3037            3598     22.6426E-03     19.8599E-03
            3037            3616     22.0253E-03     18.7335E-03
            3038             638     137.796E-03     140.107E-03
            3038             639     134.523E-03     136.849E-03
            3038            3599     127.096E-03     129.740E-03
            3038            3617     129.229E-03     131.997E-03
            3039            3599     127.096E-03     129.740E-03
            3039            3600     118.999E-03     121.739E-03
            3039            3617     129.229E-03     131.997E-03
            3039            3618     120.247E-03     123.154E-03
            3040            3600     118.999E-03     121.739E-03
            3040            3601     110.510E-03     113.142E-03
            3040            3618     120.247E-03     123.154E-03
            3040            3619     111.071E-03     113.916E-03
            3041            3601     110.510E-03     113.142E-03
            3041            3602     101.811E-03     104.273E-03
            3041            3619     111.071E-03     113.916E-03
            3041            3620     101.882E-03     104.647E-03
            3042            3602     101.811E-03     104.273E-03
            3042            3603     93.0599E-03     95.3604E-03
            3042            3620     101.882E-03     104.647E-03
            3042            3621     92.8822E-03     95.4929E-03
            3043            3603     93.0599E-03     95.3604E-03
            3043            3604     84.3664E-03     86.5063E-03
            3043            3621     92.8822E-03     95.4929E-03
            3043            3622     83.9973E-03     86.4609E-03
            3044            3604     84.3664E-03     86.5063E-03
            3044            3605     75.7303E-03     77.7460E-03
            3044            3622     83.9973E-03     86.4609E-03
            3044            3623     75.2450E-03     77.5845E-03
            3045            3605     75.7303E-03     77.7460E-03
            3045            3606     67.1930E-03     69.1079E-03
            3045            3623     75.2450E-03     77.5845E-03
            3045            3624     66.5983E-03     68.8317E-03
            3046            3606     67.1930E-03     69.1079E-03
            3046            3607     58.7505E-03     60.5938E-03
            3046            3624     66.5983E-03     68.8317E-03
            3046            3625     58.0556E-03     60.2123E-03
            3047            3607     58.7505E-03     60.5938E-03
            3047            3608     50.4425E-03     52.2339E-03
            3047            3625     58.0556E-03     60.2123E-03
            3047            3626     49.6185E-03     51.7152E-03
            3048            3608     50.4425E-03     52.2339E-03
            3048            3609     42.2962E-03     44.0576E-03
            3048            3626     49.6185E-03     51.7152E-03
            3048            3627     41.3230E-03     43.3731E-03
            3049            3609     42.2962E-03     44.0576E-03
            3049            3610     34.4285E-03     36.1616E-03
            3049            3627     41.3230E-03     43.3731E-03
            3049            3628     33.2270E-03     35.2258E-03
            3050            3610     34.4285E-03     36.1616E-03
            3050            3611     27.0323E-03     28.7005E-03
            3050            3628     33.2270E-03     35.2258E-03
            3050            3629     25.5412E-03     27.4153E-03
            3051            3611     27.0323E-03     28.7005E-03
            3051            3612     20.6117E-03     22.0369E-03
            3051            3629     25.5412E-03     27.4153E-03
            3051            3630     18.7427E-03     20.2233E-03
            3052            3612     20.6117E-03     22.0369E-03
            3052            3613     16.2998E-03     16.8900E-03
            3052            3630     18.7427E-03     20.2233E-03
            3052            3631     14.0548E-03     14.4590E-03
            3053            3613     16.2998E-03     16.8900E-03
            3053            3614     15.2670E-03     14.3725E-03
            3053            3631     14.0548E-03     14.4590E-03
            3053            3632     13.3852E-03     11.9533E-03
            3054            3614     15.2670E-03     14.3725E-03
            3054            3615     17.6111E-03     15.2355E-03
            3054            3632     13.3852E-03     11.9533E-03
            3054            3633     16.6784E-03     13.6930E-03
            3055            3615     17.6111E-03     15.2355E-03
            3055            3616     22.0253E-03     18.7335E-03
            3055            3633     16.6784E-03     13.6930E-03
            3055            3634     22.0077E-03     18.4592E-03
            3056             420     26.1273E-03     26.1218E-03
            3056             421     25.5427E-03     25.3927E-03
            3056            3616     22.0253E-03     18.7335E-03
            3056            3634     22.0077E-03     18.4592E-03
            3057             637     140.366E-03     142.945E-03
            3057             638     137.796E-03     140.107E-03
            3057            3617     129.229E-03     131.997E-03
            3057            3635     130.501E-03     133.286E-03
            3058            3617     129.229E-03     131.997E-03
            3058            3618     120.247E-03     123.154E-03
            3058            3635     130.501E-03     133.286E-03
            3058            3636     120.365E-03     123.244E-03
            3059            3618     120.247E-03     123.154E-03
            3059            3619     111.071E-03     113.916E-03
            3059            3636     120.365E-03     123.244E-03
            3059            3637     110.392E-03     113.402E-03
            3060            3619     111.071E-03     113.916E-03
            3060            3620     101.882E-03     104.647E-03
            3060            3637     110.392E-03     113.402E-03
            3060            3638     100.988E-03     103.913E-03
            3061            3620     101.882E-03     104.647E-03
            3061            3621     92.8822E-03     95.4929E-03
            3061            3638     100.988E-03     103.913E-03
            3061            3639     91.8509E-03     94.6627E-03
            3062            3621     92.8822E-03     95.4929E-03
            3062            3622     83.9973E-03     86.4609E-03
            3062            3639     91.8509E-03     94.6627E-03
            3062            3640     82.9576E-03     85.6631E-03
            3063            3622     83.9973E-03     86.4609E-03
            3063            3623     75.2450E-03     77.5845E-03
            3063            3640     82.9576E-03     85.6631E-03
            3063            3641     74.2278E-03     76.8199E-03
            3064            3623     75.2450E-03     77.5845E-03
            3064            3624     66.5983E-03     68.8317E-03
            3064            3641     74.2278E-03     76.8199E-03
            3064            3642     65.6093E-03     68.1228E-03
            3065            3624     66.5983E-03     68.8317E-03
            3065            3625     58.0556E-03     60.2123E-03
            3065            3642     65.6093E-03     68.1228E-03
            3065            3643     57.0884E-03     59.5273E-03
            3066            3625     58.0556E-03     60.2123E-03
            3066            3626     49.6185E-03     51.7152E-03
            3066            3643     57.0884E-03     59.5273E-03
            3066            3644     48.6459E-03     51.0307E-03
            3067            3626     49.6185E-03     51.7152E-03
            3067            3627     41.3230E-03     43.3731E-03
            3067            3644     48.6459E-03     51.0307E-03
            3067            3645     40.2958E-03     42.6245E-03
            3068            3627     41.3230E-03     43.3731E-03
            3068            3628     33.2270E-03     35.2258E-03
            3068            3645     40.2958E-03     42.6245E-03
            3068            3646     32.0883E-03     34.3411E-03
            3069            3628     33.2270E-03     35.2258E-03
            3069            3629     25.5412E-03     27.4153E-03
            3069            3646     32.0883E-03     34.3411E-03
            3069            3647     24.1361E-03     26.2377E-03
            3070            3629     25.5412E-03     27.4153E-03
            3070            3630     18.7427E-03     20.2233E-03
            3070            3647     24.1361E-03     26.2377E-03
            3070            3648     16.9390E-03     18.5685E-03
            3071            3630     18.7427E-03     20.2233E-03
            3071            3631     14.0548E-03     14.4590E-03
            3071            3648     16.9390E-03     18.5685E-03
            3071            3649     12.0342E-03     12.2272E-03
            3072            3631     14.0548E-03     14.4590E-03
            3072            3632     13.3852E-03     11.9533E-03
            3072            3649     12.0342E-03     12.2272E-03
            3072            3650     11.8271E-03     9.85494E-03
            3073            3632     13.3852E-03     11.9533E-03
            3073            3633     16.6784E-03     13.6930E-03
            3073            3650     11.8271E-03     9.85494E-03
            3073            3651     16.3005E-03     12.9924E-03
            3074            3633     16.6784E-03     13.6930E-03
            3074            3634     22.0077E-03     18.4592E-03
            3074            3651     16.3005E-03     12.9924E-03
            3074            3652     22.8099E-03     19.0843E-03
            3075             419     27.4655E-03     27.4767E-03
            3075             420     26.1273E-03     26.1218E-03
            3075            3634     22.0077E-03     18.4592E-03
            3075            3652     22.8099E-03     19.0843E-03
            3076             636     142.391E-03     144.636E-03
            3076             637     140.366E-03     142.945E-03
            3076            3635     130.501E-03     133.286E-03
            3076            3653     130.316E-03     132.875E-03
            3077            3635     130.501E-03     133.286E-03
            3077            3636     120.365E-03     123.244E-03
            3077            3653     130.316E-03     132.875E-03
            3077            3654     118.747E-03     121.742E-03
            3078            3636     120.365E-03     123.244E-03
            3078            3637     110.392E-03     113.402E-03
            3078            3654     118.747E-03     121.742E-03
            3078            3655     108.622E-03     111.641E-03
            3079            3637     110.392E-03     113.402E-03
            3079            3638     100.988E-03     103.913E-03
            3079            3655     108.622E-03     111.641E-03
            3079            3656     99.1232E-03     102.098E-03
            3080            3638     100.988E-03     103.913E-03
            3080            3639     91.8509E-03     94.6627E-03
            3080            3656     99.1232E-03     102.098E-03
            3080            3657     90.0858E-03     93.0175E-03
            3081            3639     91.8509E-03     94.6627E-03
            3081            3640     82.9576E-03     85.6631E-03
            3081            3657     90.0858E-03     93.0175E-03
            3081            3658     81.3405E-03     84.1915E-03
            3082            3640     82.9576E-03     85.6631E-03
            3082            3641     74.2278E-03     76.8199E-03
            3082            3658     81.3405E-03     84.1915E-03
            3082            3659     72.7531E-03     75.5599E-03
            3083            3641     74.2278E-03     76.8199E-03
            3083            3642     65.6093E-03     68.1228E-03
            3083            3659     72.7531E-03     75.5599E-03
            3083            3660     64.2910E-03     67.0397E-03
            3084            3642     65.6093E-03     68.1228E-03
            3084            3643     57.0884E-03     59.5273E-03
            3084            3660     64.2910E-03     67.0397E-03
            3084            3661     55.8881E-03     58.5998E-03
            3085            3643     57.0884E-03     59.5273E-03
            3085            3644     48.6459E-03     51.0307E-03
            3085            3661     55.8881E-03     58.5998E-03
            3085            3662     47.5467E-03     50.2105E-03
            3086            3644     48.6459E-03     51.0307E-03
            3086            3645     40.2958E-03     42.6245E-03
            3086            3662     47.5467E-03     50.2105E-03
            3086            3663     39.2426E-03     41.8565E-03
            3087            3645     40.2958E-03     42.6245E-03
            3087            3646     32.0883E-03     34.3411E-03
            3087            3663     39.2426E-03     41.8565E-03
            3087            3664     31.0004E-03     33.5329E-03
            3088            3646     32.0883E-03     34.3411E-03
            3088            3647     24.1361E-03     26.2377E-03
            3088            3664     31.0004E-03     33.5329E-03
            3088            3665     22.8983E-03     25.2610E-03
            3089            3647     24.1361E-03     26.2377E-03
            3089            3648     16.9390E-03     18.5685E-03
            3089            3665     22.8983E-03     25.2610E-03
            3089            3666     15.2017E-03     17.1482E-03
            3090            3648     16.9390E-03     18.5685E-03
            3090            3649     12.0342E-03     12.2272E-03
            3090            3666     15.2017E-03     17.1482E-03
            3090            3667     9.80958E-03     10.1101E-03
            3091            3649     12.0342E-03     12.2272E-03
            3091            3650     11.8271E-03     9.85494E-03
            3091            3667     9.80958E-03     10.1101E-03
            3091            3668     10.5947E-03     8.31083E-03
            3092            3650     11.8271E-03     9.85494E-03
            3092            3651     16.3005E-03     12.9924E-03
            3092            3668     10.5947E-03     8.31083E-03
            3092            3669     16.8061E-03     13.0993E-03
            3093            3651     16.3005E-03     12.9924E-03
            3093            3652     22.8099E-03     19.0843E-03
            3093            3669     16.8061E-03     13.0993E-03
            3093            3670     24.1380E-03     20.5641E-03
            3094             418     29.4436E-03     29.5358E-03
            3094             419     27.4655E-03     27.4767E-03
            3094            3652     22.8099E-03     19.0843E-03
            3094            3670     24.1380E-03     20.5641E-03
            3095             635     142.001E-03     143.884E-03
            3095             636     142.391E-03     144.636E-03
            3095            3653     130.316E-03     132.875E-03
            3095            3671     127.250E-03     130.012E-03
            3096            3653     130.316E-03     132.875E-03
            3096            3654     118.747E-03     121.742E-03
            3096            3671     127.250E-03     130.012E-03
            3096            3672     115.834E-03     118.727E-03
            3097            3654     118.747E-03     121.742E-03
            3097            3655     108.622E-03     111.641E-03
            3097            3672     115.834E-03     118.727E-03
            3097            3673     105.802E-03     108.692E-03
            3098            3655     108.622E-03     111.641E-03
            3098            3656     99.1232E-03     102.098E-03
            3098            3673     105.802E-03     108.692E-03
            3098            3674     96.5399E-03     99.4796E-03
            3099            3656     99.1232E-03     102.098E-03
            3099            3657     90.0858E-03     93.0175E-03
            3099            3674     96.5399E-03     99.4796E-03
            3099            3675     87.7992E-03     90.7358E-03
            3100            3657     90.0858E-03     93.0175E-03
            3100            3658     81.3405E-03     84.1915E-03
            3100            3675     87.7992E-03     90.7358E-03
            3100            3676     79.3014E-03     82.2705E-03
            3101            3658     81.3405E-03     84.1915E-03
            3101            3659     72.7531E-03     75.5599E-03
            3101            3676     79.3014E-03     82.2705E-03
            3101            3677     70.9904E-03     73.9628E-03
            3102            3659     72.7531E-03     75.5599E-03
            3102            3660     64.2910E-03     67.0397E-03
            3102            3677     70.9904E-03     73.9628E-03
            3102            3678     62.7497E-03     65.7361E-03
            3103            3660     64.2910E-03     67.0397E-03
            3103            3661     55.8881E-03     58.5998E-03
            3103            3678     62.7497E-03     65.7361E-03
            3103            3679     54.5729E-03     57.5508E-03
            3104            3661     55.8881E-03     58.5998E-03
            3104            3662     47.5467E-03     50.2105E-03
            3104            3679     54.5729E-03     57.5508E-03
            3104            3680     46.4033E-03     49.3674E-03
            3105            3662     47.5467E-03     50.2105E-03
            3105            3663     39.2426E-03     41.8565E-03
            3105            3680     46.4033E-03     49.3674E-03
            3105            3681     38.2522E-03     41.1732E-03
            3106            3663     39.2426E-03     41.8565E-03
            3106            3664     31.0004E-03     33.5329E-03
            3106            3681     38.2522E-03     41.1732E-03
            3106            3682     30.0801E-03     32.9291E-03
            3107            3664     31.0004E-03     33.5329E-03
            3107            3665     22.8983E-03     25.2610E-03
            3107            3682     30.0801E-03     32.9291E-03
            3107            3683     21.9226E-03     24.6283E-03
            3108            3665     22.8983E-03     25.2610E-03
            3108            3666     15.2017E-03     17.1482E-03
            3108            3683     21.9226E-03     24.6283E-03
            3108            3684     13.8905E-03     16.2551E-03
            3109            3666     15.2017E-03     17.1482E-03
            3109            3667     9.80958E-03     10.1101E-03
            3109            3684     13.8905E-03     16.2551E-03
            3109            3685     7.35311E-03     8.28494E-03
            3110            3667     9.80958E-03     10.1101E-03
            3110            3668     10.5947E-03     8.31083E-03
            3110            3685     7.35311E-03     8.28494E-03
            3110            3686     8.13577E-03     6.50981E-03
            3111            3668     10.5947E-03     8.31083E-03
            3111            3669     16.8061E-03     13.0993E-03
            3111            3686     8.13577E-03     6.50981E-03
            3111            3687     16.9338E-03     13.6738E-03
            3112            3669     16.8061E-03     13.0993E-03
            3112            3670     24.1380E-03     20.5641E-03
            3112            3687     16.9338E-03     13.6738E-03
            3112            3688     26.9373E-03     22.9433E-03
            3113             417     32.8308E-03     33.0346E-03
            3113             418     29.4436E-03     29.5358E-03
            3113            3670     24.1380E-03     20.5641E-03
            3113            3688     26.9373E-03     22.9433E-03
            3114             634     136.489E-03     139.138E-03
            3114             635     142.001E-03     143.884E-03
            3114            3671     127.250E-03     130.012E-03
            3114            3689     122.673E-03     125.167E-03
            3115            3671     127.250E-03     130.012E-03
            3115            3672     115.834E-03     118.727E-03
            3115            3689     122.673E-03     125.167E-03
            3115            3690     112.013E-03     114.492E-03
            3116            3672     115.834E-03     118.727E-03
            3116            3673     105.802E-03     108.692E-03
            3116            3690     112.013E-03     114.492E-03
            3116            3691     102.400E-03     105.015E-03
            3117            3673     105.802E-03     108.692E-03
            3117            3674     96.5399E-03     99.4796E-03
            3117            3691     102.400E-03     105.015E-03
            3117            3692     93.6384E-03     96.4065E-03
            3118            3674     96.5399E-03     99.4796E-03
            3118            3675     87.7992E-03     90.7358E-03
            3118            3692     93.6384E-03     96.4065E-03
            3118            3693     85.2392E-03     88.1660E-03
            3119            3675     87.7992E-03     90.7358E-03
            3119            3676     79.3014E-03     82.2705E-03
            3119            3693     85.2392E-03     88.1660E-03
            3119            3694     77.1201E-03     80.1777E-03
            3120            3676     79.3014E-03     82.2705E-03
            3120            3677     70.9904E-03     73.9628E-03
            3120            3694     77.1201E-03     80.1777E-03
            3120            3695     69.1137E-03     72.2766E-03
            3121            3677     70.9904E-03     73.9628E-03
            3121            3678     62.7497E-03     65.7361E-03
            3121            3695     69.1137E-03     72.2766E-03
            3121            3696     61.1939E-03     64.4277E-03
            3122            3678     62.7497E-03     65.7361E-03
            3122            3679     54.5729E-03     57.5508E-03
            3122            3696     61.1939E-03     64.4277E-03
            3122            3697     53.2875E-03     56.5662E-03
            3123            3679     54.5729E-03     57.5508E-03
            3123            3680     46.4033E-03     49.3674E-03
            3123            3697     53.2875E-03     56.5662E-03
            3123            3698     45.3978E-03     48.6870E-03
            3124            3680     46.4033E-03     49.3674E-03
            3124            3681     38.2522E-03     41.1732E-03
            3124            3698     45.3978E-03     48.6870E-03
            3124            3699     37.4742E-03     40.7433E-03
            3125            3681     38.2522E-03     41.1732E-03
            3125            3682     30.0801E-03     32.9291E-03
            3125            3699     37.4742E-03     40.7433E-03
            3125            3700     29.5394E-03     32.7372E-03
            3126            3682     30.0801E-03     32.9291E-03
            3126            3683     21.9226E-03     24.6283E-03
            3126            3700     29.5394E-03     32.7372E-03
            3126            3701     21.5185E-03     24.5877E-03
            3127            3683     21.9226E-03     24.6283E-03
            3127            3684     13.8905E-03     16.2551E-03
            3127            3701     21.5185E-03     24.5877E-03
            3127            3702     13.5228E-03     16.3179E-03
            3128            3684     13.8905E-03     16.2551E-03
            3128            3685     7.35311E-03     8.28494E-03
            3128            3702     13.5228E-03     16.3179E-03
            3128            3703     6.16007E-03     7.96020E-03
            3129            3685     7.35311E-03     8.28494E-03
            3129            3686     8.13577E-03     6.50981E-03
            3129            3703     6.16007E-03     7.96020E-03
            3129            3704     5.93608E-03     5.55050E-03
            3130            3686     8.13577E-03     6.50981E-03
            3130            3687     16.9338E-03     13.6738E-03
            3130            3704     5.93608E-03     5.55050E-03
            3130            3705     14.6168E-03     13.2045E-03
            3131            3687     16.9338E-03     13.6738E-03
            3131            3688     26.9373E-03     22.9433E-03
            3131            3705     14.6168E-03     13.2045E-03
            3131            3706     27.3988E-03     26.4147E-03
            3132             416     38.5373E-03     39.5553E-03
            3132             417     32.8308E-03     33.0346E-03
            3132            3688     26.9373E-03     22.9433E-03
            3132            3706     27.3988E-03     26.4147E-03
            3133             633     138.617E-03     139.185E-03
            3133             634     136.489E-03     139.138E-03
            3133            3689     122.673E-03     125.167E-03
            3133            3707     129.297E-03     129.704E-03
            3134            3689     122.673E-03     125.167E-03
            3134            3690     112.013E-03     114.492E-03
            3134            3707     129.297E-03     129.704E-03
            3134            3708     120.350E-03     121.176E-03
            3135            3690     112.013E-03     114.492E-03
            3135            3691     102.400E-03     105.015E-03
            3135            3708     120.350E-03     121.176E-03
            3135            3709     112.007E-03     113.121E-03
            3136            3691     102.400E-03     105.015E-03
            3136            3692     93.6384E-03     96.4065E-03
            3136            3709     112.007E-03     113.121E-03
            3136            3710     103.642E-03     105.155E-03
            3137            3692     93.6384E-03     96.4065E-03
            3137            3693     85.2392E-03     88.1660E-03
            3137            3710     103.642E-03     105.155E-03
            3137            3711     95.4321E-03     97.1655E-03
            3138            3693     85.2392E-03     88.1660E-03
            3138            3694     77.1201E-03     80.1777E-03
            3138            3711     95.4321E-03     97.1655E-03
            3138            3712     87.1711E-03     89.1329E-03
            3139            3694     77.1201E-03     80.1777E-03
            3139            3695     69.1137E-03     72.2766E-03
            3139            3712     87.1711E-03     89.1329E-03
            3139            3713     78.9504E-03     81.0243E-03
            3140            3695     69.1137E-03     72.2766E-03
            3140            3696     61.1939E-03     64.4277E-03
            3140            3713     78.9504E-03     81.0243E-03
            3140            3714     70.6998E-03     72.8862E-03
            3141            3696     61.1939E-03     64.4277E-03
            3141            3697     53.2875E-03     56.5662E-03
            3141            3714     70.6998E-03     72.8862E-03
            3141            3715     62.4805E-03     64.7083E-03
            3142            3697     53.2875E-03     56.5662E-03
            3142            3698     45.3978E-03     48.6870E-03
            3142            3715     62.4805E-03     64.7083E-03
            3142            3716     54.2756E-03     56.5439E-03
            3143            3698     45.3978E-03     48.6870E-03
            3143            3699     37.4742E-03     40.7433E-03
            3143            3716     54.2756E-03     56.5439E-03
            3143            3717     46.1584E-03     48.4114E-03
            3144            3699     37.4742E-03     40.7433E-03
            3144            3700     29.5394E-03     32.7372E-03
            3144            3717     46.1584E-03     48.4114E-03
            3144            3718     38.1506E-03     40.3648E-03
            3145            3700     29.5394E-03     32.7372E-03
            3145            3701     21.5185E-03     24.5877E-03
            3145            3718     38.1506E-03     40.3648E-03
            3145            3719     30.3839E-03     32.4781E-03
            3146            3701     21.5185E-03     24.5877E-03
            3146            3702     13.5228E-03     16.3179E-03
            3146            3719     30.3839E-03     32.4781E-03
            3146            3720     22.9978E-03     24.8788E-03
            3147            3702     13.5228E-03     16.3179E-03
            3147            3703     6.16007E-03     7.96020E-03
            3147            3720     22.9978E-03     24.8788E-03
            3147            3721     16.3863E-03     17.8520E-03
            3148            3703     6.16007E-03     7.96020E-03
            3148            3704     5.93608E-03     5.55050E-03
            3148            3721     16.3863E-03     17.8520E-03
            3148            3722     14.3332E-03     14.7869E-03
            3149            3704     5.93608E-03     5.55050E-03
            3149            3705     14.6168E-03     13.2045E-03
            3149            3722     14.3332E-03     14.7869E-03
            3149            3723     17.0198E-03     17.7985E-03
            3150            3705     14.6168E-03     13.2045E-03
            3150            3706     27.3988E-03     26.4147E-03
            3150            3723     17.0198E-03     17.7985E-03
            3150            3724     23.8635E-03     28.7425E-03
            3151             415     37.3390E-03     40.3758E-03
            3151             416     38.5373E-03     39.5553E-03
            3151            3706     27.3988E-03     26.4147E-03
            3151            3724     23.8635E-03     28.7425E-03
            3152             632     149.046E-03     148.997E-03
            3152             633     138.617E-03     139.185E-03
            3152            3707     129.297E-03     129.704E-03
            3152            3725     141.474E-03     141.500E-03
            3153            3707     129.297E-03     129.704E-03
            3153            3708     120.350E-03     121.176E-03
            3153            3725     141.474E-03     141.500E-03
            3153            3726     133.713E-03     133.887E-03
            3154            3708     120.350E-03     121.176E-03
            3154            3709     112.007E-03     113.121E-03
            3154            3726     133.713E-03     133.887E-03
            3154            3727     125.324E-03     125.799E-03
            3155            3709     112.007E-03     113.121E-03
            3155            3710     103.642E-03     105.155E-03
            3155            3727     125.324E-03     125.799E-03
            3155            3728     116.696E-03     117.405E-03
            3156            3710     103.642E-03     105.155E-03
            3156            3711     95.4321E-03     97.1655E-03
            3156            3728     116.696E-03     117.405E-03
            3156            3729     107.818E-03     108.701E-03
            3157            3711     95.4321E-03     97.1655E-03
            3157            3712     87.1711E-03     89.1329E-03
            3157            3729     107.818E-03     108.701E-03
            3157            3730     98.8126E-03     99.8425E-03
            3158            3712     87.1711E-03     89.1329E-03
            3158            3713     78.9504E-03     81.0243E-03
            3158            3730     98.8126E-03     99.8425E-03
            3158            3731     89.7460E-03     90.8536E-03
            3159            3713     78.9504E-03     81.0243E-03
            3159            3714     70.6998E-03     72.8862E-03
            3159            3731     89.7460E-03     90.8536E-03
            3159            3732     80.6468E-03     81.8209E-03
            3160            3714     70.6998E-03     72.8862E-03
            3160            3715     62.4805E-03     64.7083E-03
            3160            3732     80.6468E-03     81.8209E-03
            3160            3733     71.5850E-03     72.7873E-03
            3161            3715     62.4805E-03     64.7083E-03
            3161            3716     54.2756E-03     56.5439E-03
            3161            3733     71.5850E-03     72.7873E-03
            3161            3734     62.5971E-03     63.8171E-03
            3162            3716     54.2756E-03     56.5439E-03
            3162            3717     46.1584E-03     48.4114E-03
            3162            3734     62.5971E-03     63.8171E-03
            3162            3735     53.7810E-03     54.9891E-03
            3163            3717     46.1584E-03     48.4114E-03
            3163            3718     38.1506E-03     40.3648E-03
            3163            3735     53.7810E-03     54.9891E-03
            3163            3736     45.2475E-03     46.4166E-03
            3164            3718     38.1506E-03     40.3648E-03
            3164            3719     30.3839E-03     32.4781E-03
            3164            3736     45.2475E-03     46.4166E-03
            3164            3737     37.2017E-03     38.2857E-03
            3165            3719     30.3839E-03     32.4781E-03
            3165            3720     22.9978E-03     24.8788E-03
            3165            3737     37.2017E-03     38.2857E-03
            3165            3738     30.0377E-03     30.9863E-03
            3166            3720     22.9978E-03     24.8788E-03
            3166            3721     16.3863E-03     17.8520E-03
            3166            3738     30.0377E-03     30.9863E-03
            3166            3739     24.3679E-03     25.1679E-03
            3167            3721     16.3863E-03     17.8520E-03
            3167            3722     14.3332E-03     14.7869E-03
            3167            3739     24.3679E-03     25.1679E-03
            3167            3740     21.1561E-03     22.0540E-03
            3168            3722     14.3332E-03     14.7869E-03
            3168            3723     17.0198E-03     17.7985E-03
            3168            3740     21.1561E-03     22.0540E-03
            3168            3741     21.1280E-03     22.7699E-03
            3169            3723     17.0198E-03     17.7985E-03
            3169            3724     23.8635E-03     28.7425E-03
            3169            3741     21.1280E-03     22.7699E-03
            3169            3742     25.2627E-03     27.4788E-03
            3170             414     32.5105E-03     35.4162E-03
            3170             415     37.3390E-03     40.3758E-03
            3170            3724     23.8635E-03     28.7425E-03
            3170            3742     25.2627E-03     27.4788E-03
            3171             631     156.720E-03     158.684E-03
            3171             632     149.046E-03     148.997E-03
            3171            3725     141.474E-03     141.500E-03
            3171            3743     147.741E-03     149.686E-03
            3172            3725     141.474E-03     141.500E-03
            3172            3726     133.713E-03     133.887E-03
            3172            3743     147.741E-03     149.686E-03
            3172            3744     138.574E-03     140.328E-03
            3173            3726     133.713E-03     133.887E-03
            3173            3727     125.324E-03     125.799E-03
            3173            3744     138.574E-03     140.328E-03
            3173            3745     129.049E-03     130.637E-03
            3174            3727     125.324E-03     125.799E-03
            3174            3728     116.696E-03     117.405E-03
            3174            3745     129.049E-03     130.637E-03
            3174            3746     119.305E-03     120.832E-03
            3175            3728     116.696E-03     117.405E-03
            3175            3729     107.818E-03     108.701E-03
            3175            3746     119.305E-03     120.832E-03
            3175            3747     109.474E-03     111.003E-03
            3176            3729     107.818E-03     108.701E-03
            3176            3730     98.8126E-03     99.8425E-03
            3176            3747     109.474E-03     111.003E-03
            3176            3748     99.6545E-03     101.186E-03
            3177            3730     98.8126E-03     99.8425E-03
            3177            3731     89.7460E-03     90.8536E-03
            3177            3748     99.6545E-03     101.186E-03
            3177            3749     89.8458E-03     91.4007E-03
            3178            3731     89.7460E-03     90.8536E-03
            3178            3732     80.6468E-03     81.8209E-03
            3178            3749     89.8458E-03     91.4007E-03
            3178            3750     80.0970E-03     81.6589E-03
            3179            3732     80.6468E-03     81.8209E-03
            3179            3733     71.5850E-03     72.7873E-03
            3179            3750     80.0970E-03     81.6589E-03
            3179            3751     70.4099E-03     71.9786E-03
            3180            3733     71.5850E-03     72.7873E-03
            3180            3734     62.5971E-03     63.8171E-03
            3180            3751     70.4099E-03     71.9786E-03
            3180            3752     60.8351E-03     62.3892E-03
            3181            3734     62.5971E-03     63.8171E-03
            3181            3735     53.7810E-03     54.9891E-03
            3181            3752     60.8351E-03     62.3892E-03
            3181            3753     51.4164E-03     52.9427E-03
            3182            3735     53.7810E-03     54.9891E-03
            3182            3736     45.2475E-03     46.4166E-03
            3182            3753     51.4164E-03     52.9427E-03
            3182            3754     42.2735E-03     43.7443E-03
            3183            3736     45.2475E-03     46.4166E-03
            3183            3737     37.2017E-03     38.2857E-03
            3183            3754     42.2735E-03     43.7443E-03
            3183            3755     33.6246E-03     35.0083E-03
            3184            3737     37.2017E-03     38.2857E-03
            3184            3738     30.0377E-03     30.9863E-03
            3184            3755     33.6246E-03     35.0083E-03
            3184            3756     25.9195E-03     27.1827E-03
            3185            3738     30.0377E-03     30.9863E-03
            3185            3739     24.3679E-03     25.1679E-03
            3185            3756     25.9195E-03     27.1827E-03
            3185            3757     20.3495E-03     21.3521E-03
            3186            3739     24.3679E-03     25.1679E-03
            3186            3740     21.1561E-03     22.0540E-03
            3186            3757     20.3495E-03     21.3521E-03
            3186            3758     18.4450E-03     19.0377E-03
            3187            3740     21.1561E-03     22.0540E-03
            3187            3741     21.1280E-03     22.7699E-03
            3187            3758     18.4450E-03     19.0377E-03
            3187            3759     21.5079E-03     20.9704E-03
            3188            3741     21.1280E-03     22.7699E-03
            3188            3742     25.2627E-03     27.4788E-03
            3188            3759     21.5079E-03     20.9704E-03
            3188            3760     27.7427E-03     24.6736E-03
            3189             413     31.4416E-03     32.0367E-03
            3189             414     32.5105E-03     35.4162E-03
            3189            3742     25.2627E-03     27.4788E-03
            3189            3760     27.7427E-03     24.6736E-03
            3190             630     162.023E-03     164.928E-03
            3190             631     156.720E-03     158.684E-03
            3190            3743     147.741E-03     149.686E-03
            3190            3761     152.408E-03     155.459E-03
            3191            3743     147.741E-03     149.686E-03
            3191            3744     138.574E-03     140.328E-03
            3191            3761     152.408E-03     155.459E-03
            3191            3762     142.018E-03     144.872E-03
            3192            3744     138.574E-03     140.328E-03
            3192            3745     129.049E-03     130.637E-03
            3192            3762     142.018E-03     144.872E-03
            3192            3763     131.538E-03     134.035E-03
            3193            3745     129.049E-03     130.637E-03
            3193            3746     119.305E-03     120.832E-03
            3193            3763     131.538E-03     134.035E-03
            3193            3764     120.932E-03     123.253E-03
            3194            3746     119.305E-03     120.832E-03
            3194            3747     109.474E-03     111.003E-03
            3194            3764     120.932E-03     123.253E-03
            3194            3765     110.491E-03     112.647E-03
            3195            3747     109.474E-03     111.003E-03
            3195            3748     99.6545E-03     101.186E-03
            3195            3765     110.491E-03     112.647E-03
            3195            3766     100.098E-03     102.172E-03
            3196            3748     99.6545E-03     101.186E-03
            3196            3749     89.8458E-03     91.4007E-03
            3196            3766     100.098E-03     102.172E-03
            3196            3767     89.8162E-03     91.8345E-03
            3197            3749     89.8458E-03     91.4007E-03
            3197            3750     80.0970E-03     81.6589E-03
            3197            3767     89.8162E-03     91.8345E-03
            3197            3768     79.6089E-03     81.5983E-03
            3198            3750     80.0970E-03     81.6589E-03
            3198            3751     70.4099E-03     71.9786E-03
            3198            3768     79.6089E-03     81.5983E-03
            3198            3769     69.4989E-03     71.4606E-03
            3199            3751     70.4099E-03     71.9786E-03
            3199            3752     60.8351E-03     62.3892E-03
            3199            3769     69.4989E-03     71.4606E-03
            3199            3770     59.4905E-03     61.4249E-03
            3200            3752     60.8351E-03     62.3892E-03
            3200            3753     51.4164E-03     52.9427E-03
            3200            3770     59.4905E-03     61.4249E-03
            3200            3771     49.6352E-03     51.5279E-03
            3201            3753     51.4164E-03     52.9427E-03
            3201            3754     42.2735E-03     43.7443E-03
            3201            3771     49.6352E-03     51.5279E-03
            3201            3772     40.0104E-03     41.8485E-03
            3202            3754     42.2735E-03     43.7443E-03
            3202            3755     33.6246E-03     35.0083E-03
            3202            3772     40.0104E-03     41.8485E-03
            3202            3773     30.8544E-03     32.5985E-03
            3203            3755     33.6246E-03     35.0083E-03
            3203            3756     25.9195E-03     27.1827E-03
            3203            3773     30.8544E-03     32.5985E-03
            3203            3774     22.7669E-03     24.2807E-03
            3204            3756     25.9195E-03     27.1827E-03
            3204            3757     20.3495E-03     21.3521E-03
            3204            3774     22.7669E-03     24.2807E-03
            3204            3775     17.2608E-03     18.1332E-03
            3205            3757     20.3495E-03     21.3521E-03
            3205            3758     18.4450E-03     19.0377E-03
            3205            3775     17.2608E-03     18.1332E-03
            3205            3776     16.8923E-03     16.2261E-03
            3206            3758     18.4450E-03     19.0377E-03
            3206            3759     21.5079E-03     20.9704E-03
            3206            3776     16.8923E-03     16.2261E-03
            3206            3777     21.3290E-03     18.5389E-03
            3207            3759     21.5079E-03     20.9704E-03
            3207            3760     27.7427E-03     24.6736E-03
            3207            3777     21.3290E-03     18.5389E-03
            3207            3778     26.7908E-03     22.9460E-03
            3208             412     30.7582E-03     30.7249E-03
            3208             413     31.4416E-03     32.0367E-03
            3208            3760     27.7427E-03     24.6736E-03
            3208            3778     26.7908E-03     22.9460E-03
            3209             629     165.280E-03     168.976E-03
            3209             630     162.023E-03     164.928E-03
            3209            3761     152.408E-03     155.459E-03
            3209            3779     154.896E-03     158.459E-03
            3210            3761     152.408E-03     155.459E-03
            3210            3762     142.018E-03     144.872E-03
            3210            3779     154.896E-03     158.459E-03
            3210            3780     143.627E-03     146.938E-03
            3211            3762     142.018E-03     144.872E-03
            3211            3763     131.538E-03     134.035E-03
            3211            3780     143.627E-03     146.938E-03
            3211            3781     132.215E-03     135.407E-03
            3212            3763     131.538E-03     134.035E-03
            3212            3764     120.932E-03     123.253E-03
            3212            3781     132.215E-03     135.407E-03
            3212            3782     121.306E-03     124.187E-03
            3213            3764     120.932E-03     123.253E-03
            3213            3765     110.491E-03     112.647E-03
            3213            3782     121.306E-03     124.187E-03
            3213            3783     110.500E-03     113.197E-03
            3214            3765     110.491E-03     112.647E-03
            3214            3766     100.098E-03     102.172E-03
            3214            3783     110.500E-03     113.197E-03
            3214            3784     99.8916E-03     102.449E-03
            3215            3766     100.098E-03     102.172E-03
            3215            3767     89.8162E-03     91.8345E-03
            3215            3784     99.8916E-03     102.449E-03
            3215            3785     89.3769E-03     91.8500E-03
            3216            3767     89.8162E-03     91.8345E-03
            3216            3768     79.6089E-03     81.5983E-03
            3216            3785     89.3769E-03     91.8500E-03
            3216            3786     78.9627E-03     81.3803E-03
            3217            3768     79.6089E-03     81.5983E-03
            3217            3769     69.4989E-03     71.4606E-03
            3217            3786     78.9627E-03     81.3803E-03
            3217            3787     68.6293E-03     71.0077E-03
            3218            3769     69.4989E-03     71.4606E-03
            3218            3770     59.4905E-03     61.4249E-03
            3218            3787     68.6293E-03     71.0077E-03
            3218            3788     58.3880E-03     60.7280E-03
            3219            3770     59.4905E-03     61.4249E-03
            3219            3771     49.6352E-03     51.5279E-03
            3219            3788     58.3880E-03     60.7280E-03
            3219            3789     48.2560E-03     50.5557E-03
            3220            3771     49.6352E-03     51.5279E-03
            3220            3772     40.0104E-03     41.8485E-03
            3220            3789     48.2560E-03     50.5557E-03
            3220            3790     38.3171E-03     40.5563E-03
            3221            3772     40.0104E-03     41.8485E-03
            3221            3773     30.8544E-03     32.5985E-03
            3221            3790     38.3171E-03     40.5563E-03
            3221            3791     28.7299E-03     30.8698E-03
            3222            3773     30.8544E-03     32.5985E-03
            3222            3774     22.7669E-03     24.2807E-03
            3222            3791     28.7299E-03     30.8698E-03
            3222            3792     20.1893E-03     21.9808E-03
            3223            3774     22.7669E-03     24.2807E-03
            3223            3775     17.2608E-03     18.1332E-03
            3223            3792     20.1893E-03     21.9808E-03
            3223            3793     14.8126E-03     15.2889E-03
            3224            3775     17.2608E-03     18.1332E-03
            3224            3776     16.8923E-03     16.2261E-03
            3224            3793     14.8126E-03     15.2889E-03
            3224            3794     15.1804E-03     13.3571E-03
            3225            3776     16.8923E-03     16.2261E-03
            3225            3777     21.3290E-03     18.5389E-03
            3225            3794     15.1804E-03     13.3571E-03
            3225            3795     20.2657E-03     16.7551E-03
            3226            3777     21.3290E-03     18.5389E-03
            3226            3778     26.7908E-03     22.9460E-03
            3226            3795     20.2657E-03     16.7551E-03
            3226            3796     27.0374E-03     22.5306E-03
            3227             411     31.5832E-03     31.6902E-03
            3227             412     30.7582E-03     30.7249E-03
            3227            3778     26.7908E-03     22.9460E-03
            3227            3796     27.0374E-03     22.5306E-03
            3228             628     167.560E-03     170.616E-03
            3228             629     165.280E-03     168.976E-03
            3228            3779     154.896E-03     158.459E-03
            3228            3797     155.034E-03     158.521E-03
            3229            3779     154.896E-03     158.459E-03
            3229            3780     143.627E-03     146.938E-03
            3229            3797     155.034E-03     158.521E-03
            3229            3798     142.597E-03     146.282E-03
            3230            3780     143.627E-03     146.938E-03
            3230            3781     132.215E-03     135.407E-03
            3230            3798     142.597E-03     146.282E-03
            3230            3799     131.244E-03     134.694E-03
            3231            3781     132.215E-03     135.407E-03
            3231            3782     121.306E-03     124.187E-03
            3231            3799     131.244E-03     134.694E-03
            3231            3800     120.210E-03     123.463E-03
            3232            3782     121.306E-03     124.187E-03
            3232            3783     110.500E-03     113.197E-03
            3232            3800     120.210E-03     123.463E-03
            3232            3801     109.499E-03     112.579E-03
            3233            3783     110.500E-03     113.197E-03
            3233            3784     99.8916E-03     102.449E-03
            3233            3801     109.499E-03     112.579E-03
            3233            3802     98.9246E-03     101.888E-03
            3234            3784     99.8916E-03     102.449E-03
            3234            3785     89.3769E-03     91.8500E-03
            3234            3802     98.9246E-03     101.888E-03
            3234            3803     88.4556E-03     91.3444E-03
            3235            3785     89.3769E-03     91.8500E-03
            3235            3786     78.9627E-03     81.3803E-03
            3235            3803     88.4556E-03     91.3444E-03
            3235            3804     78.0549E-03     80.8944E-03
            3236            3786     78.9627E-03     81.3803E-03
            3236            3787     68.6293E-03     71.0077E-03
            3236            3804     78.0549E-03     80.8944E-03
            3236            3805     67.7110E-03     70.5123E-03
            3237            3787     68.6293E-03     71.0077E-03
            3237            3788     58.3880E-03     60.7280E-03
            3237            3805     67.7110E-03     70.5123E-03
            3237            3806     57.4232E-03     60.1911E-03
            3238            3788     58.3880E-03     60.7280E-03
            3238            3789     48.2560E-03     50.5557E-03
            3238            3806     57.4232E-03     60.1911E-03
            3238            3807     47.2043E-03     49.9315E-03
            3239            3789     48.2560E-03     50.5557E-03
            3239            3790     38.3171E-03     40.5563E-03
            3239            3807     47.2043E-03     49.9315E-03
            3239            3808     37.0854E-03     39.7618E-03
            3240            3790     38.3171E-03     40.5563E-03
            3240            3791     28.7299E-03     30.8698E-03
            3240            3808     37.0854E-03     39.7618E-03
            3240            3809     27.2229E-03     29.7834E-03
            3241            3791     28.7299E-03     30.8698E-03
            3241            3792     20.1893E-03     21.9808E-03
            3241            3809     27.2229E-03     29.7834E-03
            3241            3810     18.0370E-03     20.2477E-03
            3242            3792     20.1893E-03     21.9808E-03
            3242            3793     14.8126E-03     15.2889E-03
            3242            3810     18.0370E-03     20.2477E-03
            3242            3811     12.0435E-03     12.5549E-03
            3243            3793     14.8126E-03     15.2889E-03
            3243            3794     15.1804E-03     13.3571E-03
            3243            3811     12.0435E-03     12.5549E-03
            3243            3812     13.2837E-03     10.8908E-03
            3244            3794     15.1804E-03     13.3571E-03
            3244            3795     20.2657E-03     16.7551E-03
            3244            3812     13.2837E-03     10.8908E-03
            3244            3813     20.2358E-03     15.8896E-03
            3245            3795     20.2657E-03     16.7551E-03
            3245            3796     27.0374E-03     22.5306E-03
            3245            3813     20.2358E-03     15.8896E-03
            3245            3814     27.9230E-03     23.4163E-03
            3246             410     33.4399E-03     33.4383E-03
            3246             411     31.5832E-03     31.6902E-03
            3246            3796     27.0374E-03     22.5306E-03
            3246            3814     27.9230E-03     23.4163E-03
            3247             627     166.689E-03     169.324E-03
            3247             628     167.560E-03     170.616E-03
            3247            3797     155.034E-03     158.521E-03
            3247            3815     151.728E-03     155.247E-03
            3248            3797     155.034E-03     158.521E-03
            3248            3798     142.597E-03     146.282E-03
            3248            3815     151.728E-03     155.247E-03
            3248            3816     139.661E-03     143.262E-03
            3249            3798     142.597E-03     146.282E-03
            3249            3799     131.244E-03     134.694E-03
            3249            3816     139.661E-03     143.262E-03
            3249            3817     128.587E-03     132.053E-03
            3250            3799     131.244E-03     134.694E-03
            3250            3800     120.210E-03     123.463E-03
            3250            3817     128.587E-03     132.053E-03
            3250            3818     117.950E-03     121.358E-03
            3251            3800     120.210E-03     123.463E-03
            3251            3801     109.499E-03     112.579E-03
            3251            3818     117.950E-03     121.358E-03
            3251            3819     107.583E-03     110.922E-03
            3252            3801     109.499E-03     112.579E-03
            3252            3802     98.9246E-03     101.888E-03
            3252            3819     107.583E-03     110.922E-03
            3252            3820     97.3150E-03     100.618E-03
            3253            3802     98.9246E-03     101.888E-03
            3253            3803     88.4556E-03     91.3444E-03
            3253            3820     97.3150E-03     100.618E-03
            3253            3821     87.1109E-03     90.3866E-03
            3254            3803     88.4556E-03     91.3444E-03
            3254            3804     78.0549E-03     80.8944E-03
            3254            3821     87.1109E-03     90.3866E-03
            3254            3822     76.9291E-03     80.1805E-03
            3255            3804     78.0549E-03     80.8944E-03
            3255            3805     67.7110E-03     70.5123E-03
            3255            3822     76.9291E-03     80.1805E-03
            3255            3823     66.7661E-03     69.9973E-03
            3256            3805     67.7110E-03     70.5123E-03
            3256            3806     57.4232E-03     60.1911E-03
            3256            3823     66.7661E-03     69.9973E-03
            3256            3824     56.6148E-03     59.8182E-03
            3257            3806     57.4232E-03     60.1911E-03
            3257            3807     47.2043E-03     49.9315E-03
            3257            3824     56.6148E-03     59.8182E-03
            3257            3825     46.4843E-03     49.6565E-03
            3258            3807     47.2043E-03     49.9315E-03
            3258            3808     37.0854E-03     39.7618E-03
            3258            3825     46.4843E-03     49.6565E-03
            3258            3826     36.3843E-03     39.5074E-03
            3259            3808     37.0854E-03     39.7618E-03
            3259            3809     27.2229E-03     29.7834E-03
            3259            3826     36.3843E-03     39.5074E-03
            3259            3827     26.3632E-03     29.3968E-03
            3260            3809     27.2229E-03     29.7834E-03
            3260            3810     18.0370E-03     20.2477E-03
            3260            3827     26.3632E-03     29.3968E-03
            3260            3828     16.6835E-03     19.4329E-03
            3261            3810     18.0370E-03     20.2477E-03
            3261            3811     12.0435E-03     12.5549E-03
            3261            3828     16.6835E-03     19.4329E-03
            3261            3829     9.09947E-03     10.3329E-03
            3262            3811     12.0435E-03     12.5549E-03
            3262            3812     13.2837E-03     10.8908E-03
            3262            3829     9.09947E-03     10.3329E-03
            3262            3830     9.99134E-03     8.16868E-03
            3263            3812     13.2837E-03     10.8908E-03
            3263            3813     20.2358E-03     15.8896E-03
            3263            3830     9.99134E-03     8.16868E-03
            3263            3831     19.7686E-03     15.7761E-03
            3264            3813     20.2358E-03     15.8896E-03
            3264            3814     27.9230E-03     23.4163E-03
            3264            3831     19.7686E-03     15.7761E-03
            3264            3832     30.7404E-03     25.7294E-03
            3265             409     37.1248E-03     37.2955E-03
            3265             410     33.4399E-03     33.4383E-03
            3265            3814     27.9230E-03     23.4163E-03
            3265            3832     30.7404E-03     25.7294E-03
            3266             626     160.348E-03     163.305E-03
            3266             627     166.689E-03     169.324E-03
            3266            3815     151.728E-03     155.247E-03
            3266            3833     146.442E-03     149.451E-03
            3267            3815     151.728E-03     155.247E-03
            3267            3816     139.661E-03     143.262E-03
            3267            3833     146.442E-03     149.451E-03
            3267            3834     135.350E-03     138.423E-03
            3268            3816     139.661E-03     143.262E-03
            3268            3817     128.587E-03     132.053E-03
            3268            3834     135.350E-03     138.423E-03
            3268            3835     124.847E-03     128.150E-03
            3269            3817     128.587E-03     132.053E-03
            3269            3818     117.950E-03     121.358E-03
            3269            3835     124.847E-03     128.150E-03
            3269            3836     114.907E-03     118.357E-03
            3270            3818     117.950E-03     121.358E-03
            3270            3819     107.583E-03     110.922E-03
            3270            3836     114.907E-03     118.357E-03
            3270            3837     105.063E-03     108.628E-03
            3271            3819     107.583E-03     110.922E-03
            3271            3820     97.3150E-03     100.618E-03
            3271            3837     105.063E-03     108.628E-03
            3271            3838     95.3084E-03     98.9453E-03
            3272            3820     97.3150E-03     100.618E-03
            3272            3821     87.1109E-03     90.3866E-03
            3272            3838     95.3084E-03     98.9453E-03
            3272            3839     85.5413E-03     89.2009E-03
            3273            3821     87.1109E-03     90.3866E-03
            3273            3822     76.9291E-03     80.1805E-03
            3273            3839     85.5413E-03     89.2009E-03
            3273            3840     75.7557E-03     79.4260E-03
            3274            3822     76.9291E-03     80.1805E-03
            3274            3823     66.7661E-03     69.9973E-03
            3274            3840     75.7557E-03     79.4260E-03
            3274            3841     65.9391E-03     69.5940E-03
            3275            3823     66.7661E-03     69.9973E-03
            3275            3824     56.6148E-03     59.8182E-03
            3275            3841     65.9391E-03     69.5940E-03
            3275            3842     56.0968E-03     59.7360E-03
            3276            3824     56.6148E-03     59.8182E-03
            3276            3825     46.4843E-03     49.6565E-03
            3276            3842     56.0968E-03     59.7360E-03
            3276            3843     46.2318E-03     49.8401E-03
            3277            3825     46.4843E-03     49.6565E-03
            3277            3826     36.3843E-03     39.5074E-03
            3277            3843     46.2318E-03     49.8401E-03
            3277            3844     36.3663E-03     39.9287E-03
            3278            3826     36.3843E-03     39.5074E-03
            3278            3827     26.3632E-03     29.3968E-03
            3278            3844     36.3663E-03     39.9287E-03
            3278            3845     26.4859E-03     29.9671E-03
            3279            3827     26.3632E-03     29.3968E-03
            3279            3828     16.6835E-03     19.4329E-03
            3279            3845     26.4859E-03     29.9671E-03
            3279            3846     16.7209E-03     19.9834E-03
            3280            3828     16.6835E-03     19.4329E-03
            3280            3829     9.09947E-03     10.3329E-03
            3280            3846     16.7209E-03     19.9834E-03
            3280            3847     7.96633E-03     10.2033E-03
            3281            3829     9.09947E-03     10.3329E-03
            3281            3830     9.99134E-03     8.16868E-03
            3281            3847     7.96633E-03     10.2033E-03
            3281            3848     7.18238E-03     6.71143E-03
            3282            3830     9.99134E-03     8.16868E-03
            3282            3831     19.7686E-03     15.7761E-03
            3282            3848     7.18238E-03     6.71143E-03
            3282            3849     16.6515E-03     14.6315E-03
            3283            3831     19.7686E-03     15.7761E-03
            3283            3832     30.7404E-03     25.7294E-03
            3283            3849     16.6515E-03     14.6315E-03
            3283            3850     31.0989E-03     29.4470E-03
            3284             408     43.5871E-03     44.7027E-03
            3284             409     37.1248E-03     37.2955E-03
            3284            3832     30.7404E-03     25.7294E-03
            3284            3850     31.0989E-03     29.4470E-03
            3285              28     192.842E-03     194.938E-03
            3285             584     182.462E-03     185.346E-03
            3285             626     160.348E-03     163.305E-03
            3285            3833     146.442E-03     149.451E-03
            3286             584     182.462E-03     185.346E-03
            3286             585     172.708E-03     177.287E-03
            3286            3833     146.442E-03     149.451E-03
            3286            3834     135.350E-03     138.423E-03
            3287             585     172.708E-03     177.287E-03
            3287             586     163.947E-03     169.704E-03
            3287            3834     135.350E-03     138.423E-03
            3287            3835     124.847E-03     128.150E-03
            3288             586     163.947E-03     169.704E-03
            3288             587     155.416E-03     162.436E-03
            3288            3835     124.847E-03     128.150E-03
            3288            3836     114.907E-03     118.357E-03
            3289             587     155.416E-03     162.436E-03
            3289             588     147.277E-03     155.267E-03
            3289            3836     114.907E-03     118.357E-03
            3289            3837     105.063E-03     108.628E-03
            3290             588     147.277E-03     155.267E-03
            3290             589     139.385E-03     148.175E-03
            3290            3837     105.063E-03     108.628E-03
            3290            3838     95.3084E-03     98.9453E-03
            3291             589     139.385E-03     148.175E-03
            3291             590     131.777E-03     141.155E-03
            3291            3838     95.3084E-03     98.9453E-03
            3291            3839     85.5413E-03     89.2009E-03
            3292             590     131.777E-03     141.155E-03
            3292             591     124.460E-03     134.206E-03
            3292            3839     85.5413E-03     89.2009E-03
            3292            3840     75.7557E-03     79.4260E-03
            3293             591     124.460E-03     134.206E-03
            3293             592     117.462E-03     127.350E-03
            3293            3840     75.7557E-03     79.4260E-03
            3293            3841     65.9391E-03     69.5940E-03
            3294             592     117.462E-03     127.350E-03
            3294             593     110.809E-03     120.604E-03
            3294            3841     65.9391E-03     69.5940E-03
            3294            3842     56.0968E-03     59.7360E-03
            3295             593     110.809E-03     120.604E-03
            3295             594     104.544E-03     113.978E-03
            3295            3842     56.0968E-03     59.7360E-03
            3295            3843     46.2318E-03     49.8401E-03
            3296             594     104.544E-03     113.978E-03
            3296             595     98.6732E-03     107.496E-03
            3296            3843     46.2318E-03     49.8401E-03
            3296            3844     36.3663E-03     39.9287E-03
            3297             595     98.6732E-03     107.496E-03
            3297             596     93.2656E-03     101.154E-03
            3297            3844     36.3663E-03     39.9287E-03
            3297            3845     26.4859E-03     29.9671E-03
            3298             596     93.2656E-03     101.154E-03
            3298             597     88.2797E-03     94.9328E-03
            3298            3845     26.4859E-03     29.9671E-03
            3298            3846     16.7209E-03     19.9834E-03
            3299             597     88.2797E-03     94.9328E-03
            3299             598     84.1719E-03     89.0915E-03
            3299            3846     16.7209E-03     19.9834E-03
            3299            3847     7.96633E-03     10.2033E-03
            3300             598     84.1719E-03     89.0915E-03
            3300             599     83.9788E-03     85.7978E-03
            3300            3847     7.96633E-03     10.2033E-03
            3300            3848     7.18238E-03     6.71143E-03
            3301             599     83.9788E-03     85.7978E-03
            3301             600     90.9331E-03     91.0179E-03
            3301            3848     7.18238E-03     6.71143E-03
            3301            3849     16.6515E-03     14.6315E-03
            3302             600     90.9331E-03     91.0179E-03
            3302             601     97.6058E-03     93.9558E-03
            3302            3849     16.6515E-03     14.6315E-03
            3302            3850     31.0989E-03     29.4470E-03
            3303              22     69.7670E-03     83.4965E-03
            3303             408     43.5871E-03     44.7027E-03
            3303             601     97.6058E-03     93.9558E-03
            3303            3850     31.0989E-03     29.4470E-03
            3304              30     72.0702E-03     85.0202E-03
            3304             673     27.3991E-03     46.5220E-03
            3304             720     32.2142E-03     33.5715E-03
            3304            3851     19.5929E-03     17.4832E-03
            3305             673     27.3991E-03     46.5220E-03
            3305             674     15.2925E-03     15.0975E-03
            3305            3851     19.5929E-03     17.4832E-03
            3305            3852     8.21785E-03     7.53972E-03
            3306             674     15.2925E-03     15.0975E-03
            3306             675     22.6224E-03     12.4334E-03
            3306            3852     8.21785E-03     7.53972E-03
            3306            3853     8.82684E-03     10.8268E-03
            3307             675     22.6224E-03     12.4334E-03
            3307             676     32.9776E-03     21.2026E-03
            3307            3853     8.82684E-03     10.8268E-03
            3307            3854     18.0932E-03     21.1470E-03
            3308             676     32.9776E-03     21.2026E-03
            3308             677     42.3395E-03     31.2433E-03
            3308            3854     18.0932E-03     21.1470E-03
            3308            3855     28.1336E-03     31.4551E-03
            3309             677     42.3395E-03     31.2433E-03
            3309             678     51.5222E-03     41.3576E-03
            3309            3855     28.1336E-03     31.4551E-03
            3309            3856     38.2147E-03     41.6836E-03
            3310             678     51.5222E-03     41.3576E-03
            3310             679     60.6486E-03     51.5063E-03
            3310            3856     38.2147E-03     41.6836E-03
            3310            3857     48.3525E-03     51.9324E-03
            3311             679     60.6486E-03     51.5063E-03
            3311             680     69.8100E-03     61.6489E-03
            3311            3857     48.3525E-03     51.9324E-03
            3311            3858     58.4967E-03     62.1792E-03
            3312             680     69.8100E-03     61.6489E-03
            3312             681     78.9439E-03     71.8343E-03
            3312            3858     58.4967E-03     62.1792E-03
            3312            3859     68.6510E-03     72.4462E-03
            3313             681     78.9439E-03     71.8343E-03
            3313             682     88.0937E-03     81.9916E-03
            3313            3859     68.6510E-03     72.4462E-03
            3313            3860     78.7951E-03     82.6954E-03
            3314             682     88.0937E-03     81.9916E-03
            3314             683     97.1716E-03     92.1333E-03
            3314            3860     78.7951E-03     82.6954E-03
            3314            3861     88.9173E-03     92.9391E-03
            3315             683     97.1716E-03     92.1333E-03
            3315             684     106.234E-03     102.203E-03
            3315            3861     88.9173E-03     92.9391E-03
            3315            3862     99.0074E-03     103.130E-03
            3316             684     106.234E-03     102.203E-03
            3316             685     115.165E-03     112.202E-03
            3316            3862     99.0074E-03     103.130E-03
            3316            3863     109.049E-03     113.290E-03
            3317             685     115.165E-03     112.202E-03
            3317             686     124.063E-03     122.065E-03
            3317            3863     109.049E-03     113.290E-03
            3317            3864     119.037E-03     123.356E-03
            3318             686     124.063E-03     122.065E-03
            3318             687     132.755E-03     131.788E-03
            3318            3864     119.037E-03     123.356E-03
            3318            3865     129.000E-03     133.394E-03
            3319             687     132.755E-03     131.788E-03
            3319             688     141.513E-03     141.322E-03
            3319            3865     129.000E-03     133.394E-03
            3319            3866     138.937E-03     143.354E-03
            3320             688     141.513E-03     141.322E-03
            3320             689     150.051E-03     150.753E-03
            3320            3866     138.937E-03     143.354E-03
            3320            3867     149.201E-03     153.567E-03
            3321             689     150.051E-03     150.753E-03
            3321             690     159.303E-03     160.466E-03
            3321            3867     149.201E-03     153.567E-03
            3321            3868     159.770E-03     164.217E-03
            3322              31     169.045E-03     171.262E-03
            3322             690     159.303E-03     160.466E-03
            3322             691     173.072E-03     177.396E-03
            3322            3868     159.770E-03     164.217E-03
            3323             719     25.3373E-03     25.5997E-03
            3323             720     32.2142E-03     33.5715E-03
            3323            3851     19.5929E-03     17.4832E-03
            3323            3869     19.0484E-03     13.6562E-03
            3324            3851     19.5929E-03     17.4832E-03
            3324            3852     8.21785E-03     7.53972E-03
            3324            3869     19.0484E-03     13.6562E-03
            3324            3870     11.7860E-03     9.07412E-03
            3325            3852     8.21785E-03     7.53972E-03
            3325            3853     8.82684E-03     10.8268E-03
            3325            3870     11.7860E-03     9.07412E-03
            3325            3871     11.7934E-03     12.5482E-03
            3326            3853     8.82684E-03     10.8268E-03
            3326            3854     18.0932E-03     21.1470E-03
            3326            3871     11.7934E-03     12.5482E-03
            3326            3872     19.0981E-03     21.5801E-03
            3327            3854     18.0932E-03     21.1470E-03
            3327            3855     28.1336E-03     31.4551E-03
            3327            3872     19.0981E-03     21.5801E-03
            3327            3873     28.7102E-03     31.5053E-03
            3328            3855     28.1336E-03     31.4551E-03
            3328            3856     38.2147E-03     41.6836E-03
            3328            3873     28.7102E-03     31.5053E-03
            3328            3874     38.6861E-03     41.6459E-03
            3329            3856     38.2147E-03     41.6836E-03
            3329            3857     48.3525E-03     51.9324E-03
            3329            3874     38.6861E-03     41.6459E-03
            3329            3875     48.8196E-03     51.8858E-03
            3330            3857     48.3525E-03     51.9324E-03
            3330            3858     58.4967E-03     62.1792E-03
            3330            3875     48.8196E-03     51.8858E-03
            3330            3876     59.0370E-03     62.1913E-03
            3331            3858     58.4967E-03     62.1792E-03
            3331            3859     68.6510E-03     72.4462E-03
            3331            3876     59.0370E-03     62.1913E-03
            3331            3877     69.2995E-03     72.5216E-03
            3332            3859     68.6510E-03     72.4462E-03
            3332            3860     78.7951E-03     82.6954E-03
            3332            3877     69.2995E-03     72.5216E-03
            3332            3878     79.5948E-03     82.8853E-03
            3333            3860     78.7951E-03     82.6954E-03
            3333            3861     88.9173E-03     92.9391E-03
            3333            3878     79.5948E-03     82.8853E-03
            3333            3879     89.9149E-03     93.2584E-03
            3334            3861     88.9173E-03     92.9391E-03
            3334            3862     99.0074E-03     103.130E-03
            3334            3879     89.9149E-03     93.2584E-03
            3334            3880     100.257E-03     103.664E-03
            3335            3862     99.0074E-03     103.130E-03
            3335            3863     109.049E-03     113.290E-03
            3335            3880     100.257E-03     103.664E-03
            3335            3881     110.624E-03     114.085E-03
            3336            3863     109.049E-03     113.290E-03
            3336            3864     119.037E-03     123.356E-03
            3336            3881     110.624E-03     114.085E-03
            3336            3882     121.028E-03     124.564E-03
            3337            3864     119.037E-03     123.356E-03
            3337            3865     129.000E-03     133.394E-03
            3337            3882     121.028E-03     124.564E-03
            3337            3883     131.483E-03     135.128E-03
            3338            3865     129.000E-03     133.394E-03
            3338            3866     138.937E-03     143.354E-03
            3338            3883     131.483E-03     135.128E-03
            3338            3884     142.066E-03     145.870E-03
            3339            3866     138.937E-03     143.354E-03
            3339            3867     149.201E-03     153.567E-03
            3339            3884     142.066E-03     145.870E-03
            3339            3885     152.978E-03     157.038E-03
            3340            3867     149.201E-03     153.567E-03
            3340            3868     159.770E-03     164.217E-03
            3340            3885     152.978E-03     157.038E-03
            3340            3886     164.541E-03     168.835E-03
            3341             691     173.072E-03     177.396E-03
            3341             692     178.925E-03     182.564E-03
            3341            3868     159.770E-03     164.217E-03
            3341            3886     164.541E-03     168.835E-03
            3342             718     20.9965E-03     20.8459E-03
            3342             719     25.3373E-03     25.5997E-03
            3342            3869     19.0484E-03     13.6562E-03
            3342            3887     16.7133E-03     12.6211E-03
            3343            3869     19.0484E-03     13.6562E-03
            3343            3870     11.7860E-03     9.07412E-03
            3343            3887     16.7133E-03     12.6211E-03
            3343            3888     13.5235E-03     11.5386E-03
            3344            3870     11.7860E-03     9.07412E-03
            3344            3871     11.7934E-03     12.5482E-03
            3344            3888     13.5235E-03     11.5386E-03
            3344            3889     15.0069E-03     15.7467E-03
            3345            3871     11.7934E-03     12.5482E-03
            3345            3872     19.0981E-03     21.5801E-03
            3345            3889     15.0069E-03     15.7467E-03
            3345            3890     21.5058E-03     23.4659E-03
            3346            3872     19.0981E-03     21.5801E-03
            3346            3873     28.7102E-03     31.5053E-03
            3346            3890     21.5058E-03     23.4659E-03
            3346            3891     30.3675E-03     32.6759E-03
            3347            3873     28.7102E-03     31.5053E-03
            3347            3874     38.6861E-03     41.6459E-03
            3347            3891     30.3675E-03     32.6759E-03
            3347            3892     40.0441E-03     42.4924E-03
            3348            3874     38.6861E-03     41.6459E-03
            3348            3875     48.8196E-03     51.8858E-03
            3348            3892     40.0441E-03     42.4924E-03
            3348            3893     49.9990E-03     52.5459E-03
            3349            3875     48.8196E-03     51.8858E-03
            3349            3876     59.0370E-03     62.1913E-03
            3349            3893     49.9990E-03     52.5459E-03
            3349            3894     60.1177E-03     62.7211E-03
            3350            3876     59.0370E-03     62.1913E-03
            3350            3877     69.2995E-03     72.5216E-03
            3350            3894     60.1177E-03     62.7211E-03
            3350            3895     70.3250E-03     72.9683E-03
            3351            3877     69.2995E-03     72.5216E-03
            3351            3878     79.5948E-03     82.8853E-03
            3351            3895     70.3250E-03     72.9683E-03
            3351            3896     80.5999E-03     83.2590E-03
            3352            3878     79.5948E-03     82.8853E-03
            3352            3879     89.9149E-03     93.2584E-03
            3352            3896     80.5999E-03     83.2590E-03
            3352            3897     90.9244E-03     93.5992E-03
            3353            3879     89.9149E-03     93.2584E-03
            3353            3880     100.257E-03     103.664E-03
            3353            3897     90.9244E-03     93.5992E-03
            3353            3898     101.306E-03     103.983E-03
            3354            3880     100.257E-03     103.664E-03
            3354            3881     110.624E-03     114.085E-03
            3354            3898     101.306E-03     103.983E-03
            3354            3899     111.744E-03     114.441E-03
            3355            3881     110.624E-03     114.085E-03
            3355            3882     121.028E-03     124.564E-03
            3355            3899     111.744E-03     114.441E-03
            3355            3900     122.267E-03     124.997E-03
            3356            3882     121.028E-03     124.564E-03
            3356            3883     131.483E-03     135.128E-03
            3356            3900     122.267E-03     124.997E-03
            3356            3901     132.877E-03     135.700E-03
            3357            3883     131.483E-03     135.128E-03
            3357            3884     142.066E-03     145.870E-03
            3357            3901     132.877E-03     135.700E-03
            3357            3902     143.700E-03     146.697E-03
            3358            3884     142.066E-03     145.870E-03
            3358            3885     152.978E-03     157.038E-03
            3358            3902     143.700E-03     146.697E-03
            3358            3903     154.637E-03     157.988E-03
            3359            3885     152.978E-03     157.038E-03
            3359            3886     164.541E-03     168.835E-03
            3359            3903     154.637E-03     157.988E-03
            3359            3904     166.690E-03     170.019E-03
            3360             692     178.925E-03     182.564E-03
            3360             693     178.414E-03     181.795E-03
            3360            3886     164.541E-03     168.835E-03
            3360            3904     166.690E-03     170.019E-03
            3361             717     19.0692E-03     20.1787E-03
            3361             718     20.9965E-03     20.8459E-03
            3361            3887     16.7133E-03     12.6211E-03
            3361            3905     17.1889E-03     14.5229E-03
            3362            3887     16.7133E-03     12.6211E-03
            3362            3888     13.5235E-03     11.5386E-03
            3362            3905     17.1889E-03     14.5229E-03
            3362            3906     15.3419E-03     15.4398E-03
            3363            3888     13.5235E-03     11.5386E-03
            3363            3889     15.0069E-03     15.7467E-03
            3363            3906     15.3419E-03     15.4398E-03
            3363            3907     17.9200E-03     19.2560E-03
            3364            3889     15.0069E-03     15.7467E-03
            3364            3890     21.5058E-03     23.4659E-03
            3364            3907     17.9200E-03     19.2560E-03
            3364            3908     24.5406E-03     26.2208E-03
            3365            3890     21.5058E-03     23.4659E-03
            3365            3891     30.3675E-03     32.6759E-03
            3365            3908     24.5406E-03     26.2208E-03
            3365            3909     32.9491E-03     34.8423E-03
            3366            3891     30.3675E-03     32.6759E-03
            3366            3892     40.0441E-03     42.4924E-03
            3366            3909     32.9491E-03     34.8423E-03
            3366            3910     42.1778E-03     44.1923E-03
            3367            3892     40.0441E-03     42.4924E-03
            3367            3893     49.9990E-03     52.5459E-03
            3367            3910     42.1778E-03     44.1923E-03
            3367            3911     51.8366E-03     53.9051E-03
            3368            3893     49.9990E-03     52.5459E-03
            3368            3894     60.1177E-03     62.7211E-03
            3368            3911     51.8366E-03     53.9051E-03
            3368            3912     61.6950E-03     63.7860E-03
            3369            3894     60.1177E-03     62.7211E-03
            3369            3895     70.3250E-03     72.9683E-03
            3369            3912     61.6950E-03     63.7860E-03
            3369            3913     71.6932E-03     73.7706E-03
            3370            3895     70.3250E-03     72.9683E-03
            3370            3896     80.5999E-03     83.2590E-03
            3370            3913     71.6932E-03     73.7706E-03
            3370            3914     81.7632E-03     83.8178E-03
            3371            3896     80.5999E-03     83.2590E-03
            3371            3897     90.9244E-03     93.5992E-03
            3371            3914     81.7632E-03     83.8178E-03
            3371            3915     91.9001E-03     93.9109E-03
            3372            3897     90.9244E-03     93.5992E-03
            3372            3898     101.306E-03     103.983E-03
            3372            3915     91.9001E-03     93.9109E-03
            3372            3916     102.075E-03     104.048E-03
            3373            3898     101.306E-03     103.983E-03
            3373            3899     111.744E-03     114.441E-03
            3373            3916     102.075E-03     104.048E-03
            3373            3917     112.308E-03     114.227E-03
            3374            3899     111.744E-03     114.441E-03
            3374            3900     122.267E-03     124.997E-03
            3374            3917     112.308E-03     114.227E-03
            3374            3918     122.577E-03     124.472E-03
            3375            3900     122.267E-03     124.997E-03
            3375            3901     132.877E-03     135.700E-03
            3375            3918     122.577E-03     124.472E-03
            3375            3919     132.942E-03     134.809E-03
            3376            3901     132.877E-03     135.700E-03
            3376            3902     143.700E-03     146.697E-03
            3376            3919     132.942E-03     134.809E-03
            3376            3920     143.312E-03     145.247E-03
            3377            3902     143.700E-03     146.697E-03
            3377            3903     154.637E-03     157.988E-03
            3377            3920     143.312E-03     145.247E-03
            3377            3921     153.882E-03     155.876E-03
            3378            3903     154.637E-03     157.988E-03
            3378            3904     166.690E-03     170.019E-03
            3378            3921     153.882E-03     155.876E-03
            3378            3922     164.107E-03     166.437E-03
            3379             693     178.414E-03     181.795E-03
            3379             694     173.543E-03     176.269E-03
            3379            3904     166.690E-03     170.019E-03
            3379            3922     164.107E-03     166.437E-03
            3380             716     18.5608E-03     21.2912E-03
            3380             717     19.0692E-03     20.1787E-03
            3380            3905     17.1889E-03     14.5229E-03
            3380            3923     16.6585E-03     17.8832E-03
            3381            3905     17.1889E-03     14.5229E-03
            3381            3906     15.3419E-03     15.4398E-03
            3381            3923     16.6585E-03     17.8832E-03
            3381            3924     17.8484E-03     19.0071E-03
            3382            3906     15.3419E-03     15.4398E-03
            3382            3907     17.9200E-03     19.2560E-03
            3382            3924     17.8484E-03     19.0071E-03
            3382            3925     21.9349E-03     23.2012E-03
            3383            3907     17.9200E-03     19.2560E-03
            3383            3908     24.5406E-03     26.2208E-03
            3383            3925     21.9349E-03     23.2012E-03
            3383            3926     28.3998E-03     29.8972E-03
            3384            3908     24.5406E-03     26.2208E-03
            3384            3909     32.9491E-03     34.8423E-03
            3384            3926     28.3998E-03     29.8972E-03
            3384            3927     36.3744E-03     38.0045E-03
            3385            3909     32.9491E-03     34.8423E-03
            3385            3910     42.1778E-03     44.1923E-03
            3385            3927     36.3744E-03     38.0045E-03
            3385            3928     45.1400E-03     46.8290E-03
            3386            3910     42.1778E-03     44.1923E-03
            3386            3911     51.8366E-03     53.9051E-03
            3386            3928     45.1400E-03     46.8290E-03
            3386            3929     54.3406E-03     56.0233E-03
            3387            3911     51.8366E-03     53.9051E-03
            3387            3912     61.6950E-03     63.7860E-03
            3387            3929     54.3406E-03     56.0233E-03
            3387            3930     63.8271E-03     65.4574E-03
            3388            3912     61.6950E-03     63.7860E-03
            3388            3913     71.6932E-03     73.7706E-03
            3388            3930     63.8271E-03     65.4574E-03
            3388            3931     73.4507E-03     75.0143E-03
            3389            3913     71.6932E-03     73.7706E-03
            3389            3914     81.7632E-03     83.8178E-03
            3389            3931     73.4507E-03     75.0143E-03
            3389            3932     83.1780E-03     84.6538E-03
            3390            3914     81.7632E-03     83.8178E-03
            3390            3915     91.9001E-03     93.9109E-03
            3390            3932     83.1780E-03     84.6538E-03
            3390            3933     92.9329E-03     94.3243E-03
            3391            3915     91.9001E-03     93.9109E-03
            3391            3916     102.075E-03     104.048E-03
            3391            3933     92.9329E-03     94.3243E-03
            3391            3934     102.710E-03     103.993E-03
            3392            3916     102.075E-03     104.048E-03
            3392            3917     112.308E-03     114.227E-03
            3392            3934     102.710E-03     103.993E-03
            3392            3935     112.443E-03     113.631E-03
            3393            3917     112.308E-03     114.227E-03
            3393            3918     122.577E-03     124.472E-03
            3393            3935     112.443E-03     113.631E-03
            3393            3936     122.152E-03     123.187E-03
            3394            3918     122.577E-03     124.472E-03
            3394            3919     132.942E-03     134.809E-03
            3394            3936     122.152E-03     123.187E-03
            3394            3937     131.734E-03     132.645E-03
            3395            3919     132.942E-03     134.809E-03
            3395            3920     143.312E-03     145.247E-03
            3395            3937     131.734E-03     132.645E-03
            3395            3938     141.196E-03     141.860E-03
            3396            3920     143.312E-03     145.247E-03
            3396            3921     153.882E-03     155.876E-03
            3396            3938     141.196E-03     141.860E-03
            3396            3939     150.338E-03     150.774E-03
            3397            3921     153.882E-03     155.876E-03
            3397            3922     164.107E-03     166.437E-03
            3397            3939     150.338E-03     150.774E-03
            3397            3940     158.585E-03     158.912E-03
            3398             694     173.543E-03     176.269E-03
            3398             695     165.974E-03     166.070E-03
            3398            3922     164.107E-03     166.437E-03
            3398            3940     158.585E-03     158.912E-03
            3399             715     18.6132E-03     20.0606E-03
            3399             716     18.5608E-03     21.2912E-03
            3399            3923     16.6585E-03     17.8832E-03
            3399            3941     13.5454E-03     14.6349E-03
            3400            3923     16.6585E-03     17.8832E-03
            3400            3924     17.8484E-03     19.0071E-03
            3400            3941     13.5454E-03     14.6349E-03
            3400            3942     13.1227E-03     13.7133E-03
            3401            3924     17.8484E-03     19.0071E-03
            3401            3925     21.9349E-03     23.2012E-03
            3401            3942     13.1227E-03     13.7133E-03
            3401            3943     16.9506E-03     18.3869E-03
            3402            3925     21.9349E-03     23.2012E-03
            3402            3926     28.3998E-03     29.8972E-03
            3402            3943     16.9506E-03     18.3869E-03
            3402            3944     24.0484E-03     25.8620E-03
            3403            3926     28.3998E-03     29.8972E-03
            3403            3927     36.3744E-03     38.0045E-03
            3403            3944     24.0484E-03     25.8620E-03
            3403            3945     32.1383E-03     34.0722E-03
            3404            3927     36.3744E-03     38.0045E-03
            3404            3928     45.1400E-03     46.8290E-03
            3404            3945     32.1383E-03     34.0722E-03
            3404            3946     40.7631E-03     42.7137E-03
            3405            3928     45.1400E-03     46.8290E-03
            3405            3929     54.3406E-03     56.0233E-03
            3405            3946     40.7631E-03     42.7137E-03
            3405            3947     49.6170E-03     51.5544E-03
            3406            3929     54.3406E-03     56.0233E-03
            3406            3930     63.8271E-03     65.4574E-03
            3406            3947     49.6170E-03     51.5544E-03
            3406            3948     58.6492E-03     60.5371E-03
            3407            3930     63.8271E-03     65.4574E-03
            3407            3931     73.4507E-03     75.0143E-03
            3407            3948     58.6492E-03     60.5371E-03
            3407            3949     67.7605E-03     69.6079E-03
            3408            3931     73.4507E-03     75.0143E-03
            3408            3932     83.1780E-03     84.6538E-03
            3408            3949     67.7605E-03     69.6079E-03
            3408            3950     76.9329E-03     78.7128E-03
            3409            3932     83.1780E-03     84.6538E-03
            3409            3933     92.9329E-03     94.3243E-03
            3409            3950     76.9329E-03     78.7128E-03
            3409            3951     86.1131E-03     87.8507E-03
            3410            3933     92.9329E-03     94.3243E-03
            3410            3934     102.710E-03     103.993E-03
            3410            3951     86.1131E-03     87.8507E-03
            3410            3952     95.2959E-03     96.9518E-03
            3411            3934     102.710E-03     103.993E-03
            3411            3935     112.443E-03     113.631E-03
            3411            3952     95.2959E-03     96.9518E-03
            3411            3953     104.431E-03     106.041E-03
            3412            3935     112.443E-03     113.631E-03
            3412            3936     122.152E-03     123.187E-03
            3412            3953     104.431E-03     106.041E-03
            3412            3954     113.519E-03     115.016E-03
            3413            3936     122.152E-03     123.187E-03
            3413            3937     131.734E-03     132.645E-03
            3413            3954     113.519E-03     115.016E-03
            3413            3955     122.492E-03     123.894E-03
            3414            3937     131.734E-03     132.645E-03
            3414            3938     141.196E-03     141.860E-03
            3414            3955     122.492E-03     123.894E-03
            3414            3956     131.343E-03     132.556E-03
            3415            3938     141.196E-03     141.860E-03
            3415            3939     150.338E-03     150.774E-03
            3415            3956     131.343E-03     132.556E-03
            3415            3957     139.850E-03     140.856E-03
            3416            3939     150.338E-03     150.774E-03
            3416            3940     158.585E-03     158.912E-03
            3416            3957     139.850E-03     140.856E-03
            3416            3958     148.075E-03     148.702E-03
            3417             695     165.974E-03     166.070E-03
            3417             696     155.444E-03     155.853E-03
            3417            3940     158.585E-03     158.912E-03
            3417            3958     148.075E-03     148.702E-03
            3418              33     22.0856E-03     23.0386E-03
            3418             714     12.0053E-03     11.9469E-03
            3418             715     18.6132E-03     20.0606E-03
            3418            3941     13.5454E-03     14.6349E-03
            3419             713     6.07379E-03     6.53829E-03
            3419             714     12.0053E-03     11.9469E-03
            3419            3941     13.5454E-03     14.6349E-03
            3419            3942     13.1227E-03     13.7133E-03
            3420             712     8.80818E-03     11.0962E-03
            3420             713     6.07379E-03     6.53829E-03
            3420            3942     13.1227E-03     13.7133E-03
            3420            3943     16.9506E-03     18.3869E-03
            3421             711     16.3260E-03     19.2448E-03
            3421             712     8.80818E-03     11.0962E-03
            3421            3943     16.9506E-03     18.3869E-03
            3421            3944     24.0484E-03     25.8620E-03
            3422             710     24.4606E-03     27.6150E-03
            3422             711     16.3260E-03     19.2448E-03
            3422            3944     24.0484E-03     25.8620E-03
            3422            3945     32.1383E-03     34.0722E-03
            3423             709     32.6779E-03     35.9493E-03
            3423             710     24.4606E-03     27.6150E-03
            3423            3945     32.1383E-03     34.0722E-03
            3423            3946     40.7631E-03     42.7137E-03
            3424             708     40.9017E-03     44.2434E-03
            3424             709     32.6779E-03     35.9493E-03
            3424            3946     40.7631E-03     42.7137E-03
            3424            3947     49.6170E-03     51.5544E-03
            3425             707     49.1333E-03     52.5006E-03
            3425             708     40.9017E-03     44.2434E-03
            3425            3947     49.6170E-03     51.5544E-03
            3425            3948     58.6492E-03     60.5371E-03
            3426             706     57.3508E-03     60.7317E-03
            3426             707     49.1333E-03     52.5006E-03
            3426            3948     58.6492E-03     60.5371E-03
            3426            3949     67.7605E-03     69.6079E-03
            3427             705     65.5676E-03     68.9338E-03
            3427             706     57.3508E-03     60.7317E-03
            3427            3949     67.7605E-03     69.6079E-03
            3427            3950     76.9329E-03     78.7128E-03
            3428             704     73.7685E-03     77.1185E-03
            3428             705     65.5676E-03     68.9338E-03
            3428            3950     76.9329E-03     78.7128E-03
            3428            3951     86.1131E-03     87.8507E-03
            3429             703     81.9854E-03     85.2804E-03
            3429             704     73.7685E-03     77.1185E-03
            3429            3951     86.1131E-03     87.8507E-03
            3429            3952     95.2959E-03     96.9518E-03
            3430             702     90.2043E-03     93.4467E-03
            3430             703     81.9854E-03     85.2804E-03
            3430            3952     95.2959E-03     96.9518E-03
            3430            3953     104.431E-03     106.041E-03
            3431             701     98.5041E-03     101.626E-03
            3431             702     90.2043E-03     93.4467E-03
            3431            3953     104.431E-03     106.041E-03
            3431            3954     113.519E-03     115.016E-03
            3432             700     106.872E-03     109.896E-03
            3432             701     98.5041E-03     101.626E-03
            3432            3954     113.519E-03     115.016E-03
            3432            3955     122.492E-03     123.894E-03
            3433             699     115.504E-03     118.334E-03
            3433             700     106.872E-03     109.896E-03
            3433            3955     122.492E-03     123.894E-03
            3433            3956     131.343E-03     132.556E-03
            3434             698     124.396E-03     127.148E-03
            3434             699     115.504E-03     118.334E-03
            3434            3956     131.343E-03     132.556E-03
            3434            3957     139.850E-03     140.856E-03
            3435             697     134.106E-03     136.752E-03
            3435             698     124.396E-03     127.148E-03
            3435            3957     139.850E-03     140.856E-03
            3435            3958     148.075E-03     148.702E-03
            3436              32     144.763E-03     147.767E-03
            3436             696     155.444E-03     155.853E-03
            3436             697     134.106E-03     136.752E-03
            3436            3958     148.075E-03     148.702E-03
            3437              23     5.40875E-03     8.18529E-03
            3437             455     4.66254E-03     5.27614E-03
            3437             531     9.20680E-03     11.4549E-03
            3437            3959     8.29160E-03     8.51154E-03
            3438              17     5.93188E-03     4.69016E-03
            3438             455     4.66254E-03     5.27614E-03
            3438             672     12.2693E-03     10.3789E-03
            3438            3959     8.29160E-03     8.51154E-03
            3439             530     9.52862E-03     8.59792E-03
            3439             531     9.20680E-03     11.4549E-03
            3439            3959     8.29160E-03     8.51154E-03
            3439            3960     9.19370E-03     8.77839E-03
            3440             671     13.5854E-03     13.3547E-03
            3440             672     12.2693E-03     10.3789E-03
            3440            3959     8.29160E-03     8.51154E-03
            3440            3960     9.19370E-03     8.77839E-03
            3441             529     13.4798E-03     13.6487E-03
            3441             530     9.52862E-03     8.59792E-03
            3441            3960     9.19370E-03     8.77839E-03
            3441            3961     13.1511E-03     13.3132E-03
            3442             670     15.6702E-03     16.1733E-03
            3442             671     13.5854E-03     13.3547E-03
            3442            3960     9.19370E-03     8.77839E-03
            3442            3961     13.1511E-03     13.3132E-03
            3443             528     20.6681E-03     20.1581E-03
            3443             529     13.4798E-03     13.6487E-03
            3443            3961     13.1511E-03     13.3132E-03
            3443            3962     18.7871E-03     19.0242E-03
            3444             669     19.0576E-03     19.7079E-03
            3444             670     15.6702E-03     16.1733E-03
            3444            3961     13.1511E-03     13.3132E-03
            3444            3962     18.7871E-03     19.0242E-03
            3445             527     27.1390E-03     28.3949E-03
            3445             528     20.6681E-03     20.1581E-03
            3445            3962     18.7871E-03     19.0242E-03
            3445            3963     24.4841E-03     25.1038E-03
            3446             668     22.9164E-03     23.5752E-03
            3446             669     19.0576E-03     19.7079E-03
            3446            3962     18.7871E-03     19.0242E-03
            3446            3963     24.4841E-03     25.1038E-03
            3447             526     36.8023E-03     35.6588E-03
            3447             527     27.1390E-03     28.3949E-03
            3447            3963     24.4841E-03     25.1038E-03
            3447            3964     30.8765E-03     30.9108E-03
            3448             667     26.0801E-03     26.7270E-03
            3448             668     22.9164E-03     23.5752E-03
            3448            3963     24.4841E-03     25.1038E-03
            3448            3964     30.8765E-03     30.9108E-03
            3449             525     45.2561E-03     45.6314E-03
            3449             526     36.8023E-03     35.6588E-03
            3449            3964     30.8765E-03     30.9108E-03
            3449            3965     34.9090E-03     36.7037E-03
            3450             666     26.0977E-03     28.0963E-03
            3450             667     26.0801E-03     26.7270E-03
            3450            3964     30.8765E-03     30.9108E-03
            3450            3965     34.9090E-03     36.7037E-03
            3451             524     36.9518E-03     39.8547E-03
            3451             525     45.2561E-03     45.6314E-03
            3451            3965     34.9090E-03     36.7037E-03
            3451            3966     34.4262E-03     35.1564E-03
            3452             665     32.0367E-03     32.0138E-03
            3452             666     26.0977E-03     28.0963E-03
            3452            3965     34.9090E-03     36.7037E-03
            3452            3966     34.4262E-03     35.1564E-03
            3453             523     31.7453E-03     29.9465E-03
            3453             524     36.9518E-03     39.8547E-03
            3453            3966     34.4262E-03     35.1564E-03
            3453            3967     35.9367E-03     34.2932E-03
            3454             664     40.3304E-03     38.5291E-03
            3454             665     32.0367E-03     32.0138E-03
            3454            3966     34.4262E-03     35.1564E-03
            3454            3967     35.9367E-03     34.2932E-03
            3455             522     39.3140E-03     38.6814E-03
            3455             523     31.7453E-03     29.9465E-03
            3455            3967     35.9367E-03     34.2932E-03
            3455            3968     41.4291E-03     41.6461E-03
            3456             663     43.4913E-03     43.5780E-03
            3456             664     40.3304E-03     38.5291E-03
            3456            3967     35.9367E-03     34.2932E-03
            3456            3968     41.4291E-03     41.6461E-03
            3457             521     46.4737E-03     46.6146E-03
            3457             522     39.3140E-03     38.6814E-03
            3457            3968     41.4291E-03     41.6461E-03
            3457            3969     47.5135E-03     47.9989E-03
            3458             662     47.3944E-03     48.1716E-03
            3458             663     43.4913E-03     43.5780E-03
            3458            3968     41.4291E-03     41.6461E-03
            3458            3969     47.5135E-03     47.9989E-03
            3459             520     53.5770E-03     53.3588E-03
            3459             521     46.4737E-03     46.6146E-03
            3459            3969     47.5135E-03     47.9989E-03
            3459            3970     53.1203E-03     53.6957E-03
            3460             661     51.4942E-03     52.4953E-03
            3460             662     47.3944E-03     48.1716E-03
            3460            3969     47.5135E-03     47.9989E-03
            3460            3970     53.1203E-03     53.6957E-03
            3461             519     59.9898E-03     60.5208E-03
            3461             520     53.5770E-03     53.3588E-03
            3461            3970     53.1203E-03     53.6957E-03
            3461            3971     58.3158E-03     59.1278E-03
            3462             660     55.4730E-03     56.4834E-03
            3462             661     51.4942E-03     52.4953E-03
            3462            3970     53.1203E-03     53.6957E-03
            3462            3971     58.3158E-03     59.1278E-03
            3463             518     67.2298E-03     66.4028E-03
            3463             519     59.9898E-03     60.5208E-03
            3463            3971     58.3158E-03     59.1278E-03
            3463            3972     63.5811E-03     64.2981E-03
            3464             659     59.0932E-03     60.3259E-03
            3464             660     55.4730E-03     56.4834E-03
            3464            3971     58.3158E-03     59.1278E-03
            3464            3972     63.5811E-03     64.2981E-03
            3465             517     72.6882E-03     74.9726E-03
            3465             518     67.2298E-03     66.4028E-03
            3465            3972     63.5811E-03     64.2981E-03
            3465            3973     68.5298E-03     69.7979E-03
            3466             658     62.5686E-03     63.6443E-03
            3466             659     59.0932E-03     60.3259E-03
            3466            3972     63.5811E-03     64.2981E-03
            3466            3973     68.5298E-03     69.7979E-03
            3467             516     83.0902E-03     80.8243E-03
            3467             517     72.6882E-03     74.9726E-03
            3467            3973     68.5298E-03     69.7979E-03
            3467            3974     73.9973E-03     74.2269E-03
            3468             657     64.5106E-03     65.6134E-03
            3468             658     62.5686E-03     63.6443E-03
            3468            3973     68.5298E-03     69.7979E-03
            3468            3974     73.9973E-03     74.2269E-03
            3469             515     91.0887E-03     90.3210E-03
            3469             516     83.0902E-03     80.8243E-03
            3469            3974     73.9973E-03     74.2269E-03
            3469            3975     76.2098E-03     78.0903E-03
            3470             656     62.7646E-03     65.1556E-03
            3470             657     64.5106E-03     65.6134E-03
            3470            3974     73.9973E-03     74.2269E-03
            3470            3975     76.2098E-03     78.0903E-03
            3471             514     80.9098E-03     86.9413E-03
            3471             515     91.0887E-03     90.3210E-03
            3471            3975     76.2098E-03     78.0903E-03
            3471            3976     74.3687E-03     75.9206E-03
            3472             655     67.8385E-03     68.0594E-03
            3472             656     62.7646E-03     65.1556E-03
            3472            3975     76.2098E-03     78.0903E-03
            3472            3976     74.3687E-03     75.9206E-03
            3473             513     77.6457E-03     74.6593E-03
            3473             514     80.9098E-03     86.9413E-03
            3473            3976     74.3687E-03     75.9206E-03
            3473            3977     76.9258E-03     75.4838E-03
            3474             654     77.1160E-03     75.8480E-03
            3474             655     67.8385E-03     68.0594E-03
            3474            3976     74.3687E-03     75.9206E-03
            3474            3977     76.9258E-03     75.4838E-03
            3475             512     83.8976E-03     82.1020E-03
            3475             513     77.6457E-03     74.6593E-03
            3475            3977     76.9258E-03     75.4838E-03
            3475            3978     83.2534E-03     83.6702E-03
            3476             653     81.9886E-03     82.5352E-03
            3476             654     77.1160E-03     75.8480E-03
            3476            3977     76.9258E-03     75.4838E-03
            3476            3978     83.2534E-03     83.6702E-03
            3477             511     89.0544E-03     89.9551E-03
            3477             512     83.8976E-03     82.1020E-03
            3477            3978     83.2534E-03     83.6702E-03
            3477            3979     89.2118E-03     90.2646E-03
            3478             652     86.6270E-03     87.9976E-03
            3478             653     81.9886E-03     82.5352E-03
            3478            3978     83.2534E-03     83.6702E-03
            3478            3979     89.2118E-03     90.2646E-03
            3479             510     95.8438E-03     95.4293E-03
            3479             511     89.0544E-03     89.9551E-03
            3479            3979     89.2118E-03     90.2646E-03
            3479            3980     94.5859E-03     95.6281E-03
            3480             651     90.9925E-03     92.5567E-03
            3480             652     86.6270E-03     87.9976E-03
            3480            3979     89.2118E-03     90.2646E-03
            3480            3980     94.5859E-03     95.6281E-03
            3481             509     101.754E-03     101.918E-03
            3481             510     95.8438E-03     95.4293E-03
            3481            3980     94.5859E-03     95.6281E-03
            3481            3981     99.5537E-03     100.716E-03
            3482             650     94.8688E-03     96.5351E-03
            3482             651     90.9925E-03     92.5567E-03
            3482            3980     94.5859E-03     95.6281E-03
            3482            3981     99.5537E-03     100.716E-03
            3483             508     107.428E-03     108.182E-03
            3483             509     101.754E-03     101.918E-03
            3483            3981     99.5537E-03     100.716E-03
            3483            3982     104.180E-03     105.551E-03
            3484             649     98.4720E-03     100.125E-03
            3484             650     94.8688E-03     96.5351E-03
            3484            3981     99.5537E-03     100.716E-03
            3484            3982     104.180E-03     105.551E-03
            3485             507     114.202E-03     113.082E-03
            3485             508     107.428E-03     108.182E-03
            3485            3982     104.180E-03     105.551E-03
            3485            3983     108.838E-03     110.069E-03
            3486             648     101.538E-03     103.445E-03
            3486             649     98.4720E-03     100.125E-03
            3486            3982     104.180E-03     105.551E-03
            3486            3983     108.838E-03     110.069E-03
            3487             506     118.539E-03     121.693E-03
            3487             507     114.202E-03     113.082E-03
            3487            3983     108.838E-03     110.069E-03
            3487            3984     113.055E-03     114.956E-03
            3488             647     104.258E-03     105.921E-03
            3488             648     101.538E-03     103.445E-03
            3488            3983     108.838E-03     110.069E-03
            3488            3984     113.055E-03     114.956E-03
            3489             505     129.532E-03     126.152E-03
            3489             506     118.539E-03     121.693E-03
            3489            3984     113.055E-03     114.956E-03
            3489            3985     117.680E-03     118.111E-03
            3490             646     104.976E-03     106.480E-03
            3490             647     104.258E-03     105.921E-03
            3490            3984     113.055E-03     114.956E-03
            3490            3985     117.680E-03     118.111E-03
            3491             504     137.169E-03     135.219E-03
            3491             505     129.532E-03     126.152E-03
            3491            3985     117.680E-03     118.111E-03
            3491            3986     118.214E-03     120.063E-03
            3492             645     101.261E-03     103.808E-03
            3492             646     104.976E-03     106.480E-03
            3492            3985     117.680E-03     118.111E-03
            3492            3986     118.214E-03     120.063E-03
            3493             503     125.311E-03     134.553E-03
            3493             504     137.169E-03     135.219E-03
            3493            3986     118.214E-03     120.063E-03
            3493            3987     114.993E-03     117.330E-03
            3494             644     104.704E-03     105.045E-03
            3494             645     101.261E-03     103.808E-03
            3494            3986     118.214E-03     120.063E-03
            3494            3987     114.993E-03     117.330E-03
            3495             502     124.303E-03     120.324E-03
            3495             503     125.311E-03     134.553E-03
            3495            3987     114.993E-03     117.330E-03
            3495            3988     118.634E-03     117.444E-03
            3496             643     114.531E-03     113.760E-03
            3496             644     104.704E-03     105.045E-03
            3496            3987     114.993E-03     117.330E-03
            3496            3988     118.634E-03     117.444E-03
            3497             501     129.576E-03     126.630E-03
            3497             502     124.303E-03     120.324E-03
            3497            3988     118.634E-03     117.444E-03
            3497            3989     125.832E-03     126.445E-03
            3498             642     121.106E-03     122.146E-03
            3498             643     114.531E-03     113.760E-03
            3498            3988     118.634E-03     117.444E-03
            3498            3989     125.832E-03     126.445E-03
            3499             500     132.751E-03     134.590E-03
            3499             501     129.576E-03     126.630E-03
            3499            3989     125.832E-03     126.445E-03
            3499            3990     131.599E-03     133.305E-03
            3500             641     126.372E-03     128.366E-03
            3500             642     121.106E-03     122.146E-03
            3500            3989     125.832E-03     126.445E-03
            3500            3990     131.599E-03     133.305E-03
            3501             499     139.512E-03     138.760E-03
            3501             500     132.751E-03     134.590E-03
            3501            3990     131.599E-03     133.305E-03
            3501            3991     136.771E-03     138.295E-03
            3502             640     130.786E-03     133.062E-03
            3502             641     126.372E-03     128.366E-03
            3502            3990     131.599E-03     133.305E-03
            3502            3991     136.771E-03     138.295E-03
            3503             498     144.671E-03     145.057E-03
            3503             499     139.512E-03     138.760E-03
            3503            3991     136.771E-03     138.295E-03
            3503            3992     141.366E-03     143.060E-03
            3504             639     134.523E-03     136.849E-03
            3504             640     130.786E-03     133.062E-03
            3504            3991     136.771E-03     138.295E-03
            3504            3992     141.366E-03     143.060E-03
            3505             497     149.838E-03     150.757E-03
            3505             498     144.671E-03     145.057E-03
            3505            3992     141.366E-03     143.060E-03
            3505            3993     145.573E-03     147.454E-03
            3506             638     137.796E-03     140.107E-03
            3506             639     134.523E-03     136.849E-03
            3506            3992     141.366E-03     143.060E-03
            3506            3993     145.573E-03     147.454E-03
            3507             496     156.224E-03     154.823E-03
            3507             497     149.838E-03     150.757E-03
            3507            3993     145.573E-03     147.454E-03
            3507            3994     149.732E-03     151.419E-03
            3508             637     140.366E-03     142.945E-03
            3508             638     137.796E-03     140.107E-03
            3508            3993     145.573E-03     147.454E-03
            3508            3994     149.732E-03     151.419E-03
            3509             495     159.586E-03     163.465E-03
            3509             496     156.224E-03     154.823E-03
            3509            3994     149.732E-03     151.419E-03
            3509            3995     153.279E-03     155.743E-03
            3510             636     142.391E-03     144.636E-03
            3510             637     140.366E-03     142.945E-03
            3510            3994     149.732E-03     151.419E-03
            3510            3995     153.279E-03     155.743E-03
            3511             494     171.090E-03     166.690E-03
            3511             495     159.586E-03     163.465E-03
            3511            3995     153.279E-03     155.743E-03
            3511            3996     157.132E-03     157.739E-03
            3512             635     142.001E-03     143.884E-03
            3512             636     142.391E-03     144.636E-03
            3512            3995     153.279E-03     155.743E-03
            3512            3996     157.132E-03     157.739E-03
            3513             493     178.417E-03     175.374E-03
            3513             494     171.090E-03     166.690E-03
            3513            3996     157.132E-03     157.739E-03
            3513            3997     156.170E-03     157.945E-03
            3514             634     136.489E-03     139.138E-03
            3514             635     142.001E-03     143.884E-03
            3514            3996     157.132E-03     157.739E-03
            3514            3997     156.170E-03     157.945E-03
            3515             492     164.757E-03     176.978E-03
            3515             493     178.417E-03     175.374E-03
            3515            3997     156.170E-03     157.945E-03
            3515            3998     151.740E-03     154.897E-03
            3516             633     138.617E-03     139.185E-03
            3516             634     136.489E-03     139.138E-03
            3516            3997     156.170E-03     157.945E-03
            3516            3998     151.740E-03     154.897E-03
            3517             491     165.456E-03     161.037E-03
            3517             492     164.757E-03     176.978E-03
            3517            3998     151.740E-03     154.897E-03
            3517            3999     156.474E-03     155.792E-03
            3518             632     149.046E-03     148.997E-03
            3518             633     138.617E-03     139.185E-03
            3518            3998     151.740E-03     154.897E-03
            3518            3999     156.474E-03     155.792E-03
            3519             490     170.670E-03     166.613E-03
            3519             491     165.456E-03     161.037E-03
            3519            3999     156.474E-03     155.792E-03
            3519            4000     164.541E-03     165.549E-03
            3520             631     156.720E-03     158.684E-03
            3520             632     149.046E-03     148.997E-03
            3520            3999     156.474E-03     155.792E-03
            3520            4000     164.541E-03     165.549E-03
            3521             489     171.965E-03     175.745E-03
            3521             490     170.670E-03     166.613E-03
            3521            4000     164.541E-03     165.549E-03
            3521            4001     169.796E-03     172.665E-03
            3522             630     162.023E-03     164.928E-03
            3522             631     156.720E-03     158.684E-03
            3522            4000     164.541E-03     165.549E-03
            3522            4001     169.796E-03     172.665E-03
            3523             488     180.324E-03     177.342E-03
            3523             489     171.965E-03     175.745E-03
            3523            4001     169.796E-03     172.665E-03
            3523            4002     174.702E-03     176.788E-03
            3524             629     165.280E-03     168.976E-03
            3524             630     162.023E-03     164.928E-03
            3524            4001     169.796E-03     172.665E-03
            3524            4002     174.702E-03     176.788E-03
            3525             487     182.497E-03     187.367E-03
            3525             488     180.324E-03     177.342E-03
            3525            4002     174.702E-03     176.788E-03
            3525            4003     178.031E-03     181.235E-03
            3526             628     167.560E-03     170.616E-03
            3526             629     165.280E-03     168.976E-03
            3526            4002     174.702E-03     176.788E-03
            3526            4003     178.031E-03     181.235E-03
            3527             486     194.563E-03     189.380E-03
            3527             487     182.497E-03     187.367E-03
            3527            4003     178.031E-03     181.235E-03
            3527            4004     181.594E-03     182.489E-03
            3528             627     166.689E-03     169.324E-03
            3528             628     167.560E-03     170.616E-03
            3528            4003     178.031E-03     181.235E-03
            3528            4004     181.594E-03     182.489E-03
            3529             485     201.470E-03     197.877E-03
            3529             486     194.563E-03     189.380E-03
            3529            4004     181.594E-03     182.489E-03
            3529            4005     179.725E-03     181.537E-03
            3530             626     160.348E-03     163.305E-03
            3530             627     166.689E-03     169.324E-03
            3530            4004     181.594E-03     182.489E-03
            3530            4005     179.725E-03     181.537E-03
            3531              25     219.892E-03     227.888E-03
            3531             485     201.470E-03     197.877E-03
            3531             558     208.347E-03     210.270E-03
            3531            4005     179.725E-03     181.537E-03
            3532              28     192.842E-03     194.938E-03
            3532             558     208.347E-03     210.270E-03
            3532             626     160.348E-03     163.305E-03
            3532            4005     179.725E-03     181.537E-03
            3533              31     169.045E-03     171.262E-03
            3533             691     173.072E-03     177.396E-03
            3533             721     185.808E-03     192.371E-03
            3533            4006     192.381E-03     195.360E-03
            3534               8     201.785E-03     220.921E-03
            3534             189     213.395E-03     210.657E-03
            3534             721     185.808E-03     192.371E-03
            3534            4006     192.381E-03     195.360E-03
            3535             691     173.072E-03     177.396E-03
            3535             692     178.925E-03     182.564E-03
            3535            4006     192.381E-03     195.360E-03
            3535            4007     193.205E-03     194.518E-03
            3536             188     204.976E-03     198.069E-03
            3536             189     213.395E-03     210.657E-03
            3536            4006     192.381E-03     195.360E-03
            3536            4007     193.205E-03     194.518E-03
            3537             692     178.925E-03     182.564E-03
            3537             693     178.414E-03     181.795E-03
            3537            4007     193.205E-03     194.518E-03
            3537            4008     187.342E-03     191.523E-03
            3538             187     188.330E-03     196.005E-03
            3538             188     204.976E-03     198.069E-03
            3538            4007     193.205E-03     194.518E-03
            3538            4008     187.342E-03     191.523E-03
            3539             693     178.414E-03     181.795E-03
            3539             694     173.543E-03     176.269E-03
            3539            4008     187.342E-03     191.523E-03
            3539            4009     181.193E-03     182.622E-03
            3540             186     186.907E-03     180.920E-03
            3540             187     188.330E-03     196.005E-03
            3540            4008     187.342E-03     191.523E-03
            3540            4009     181.193E-03     182.622E-03
            3541             694     173.543E-03     176.269E-03
            3541             695     165.974E-03     166.070E-03
            3541            4009     181.193E-03     182.622E-03
            3541            4010     171.650E-03     171.224E-03
            3542             185     178.080E-03     174.105E-03
            3542             186     186.907E-03     180.920E-03
            3542            4009     181.193E-03     182.622E-03
            3542            4010     171.650E-03     171.224E-03
            3543             695     165.974E-03     166.070E-03
            3543             696     155.444E-03     155.853E-03
            3543            4010     171.650E-03     171.224E-03
            3543            4011     162.071E-03     163.148E-03
            3544             184     166.300E-03     171.460E-03
            3544             185     178.080E-03     174.105E-03
            3544            4010     171.650E-03     171.224E-03
            3544            4011     162.071E-03     163.148E-03
            3545              32     144.763E-03     147.767E-03
            3545             696     155.444E-03     155.853E-03
            3545             722     160.031E-03     165.053E-03
            3545            4011     162.071E-03     163.148E-03
            3546              10     173.709E-03     184.196E-03
            3546             184     166.300E-03     171.460E-03
            3546             722     160.031E-03     165.053E-03
            3546            4011     162.071E-03     163.148E-03
            3547               5     81.3544E-03     84.2952E-03
            3547             103     43.1418E-03     41.2933E-03
            3547             542     110.738E-03     119.436E-03
            3547            4012     76.4080E-03     73.4049E-03
            3548             102     43.6174E-03     43.9101E-03
            3548             103     43.1418E-03     41.2933E-03
            3548            4012     76.4080E-03     73.4049E-03
            3548            4013     78.9229E-03     76.3811E-03
            3549             101     41.2470E-03     43.8739E-03
            3549             102     43.6174E-03     43.9101E-03
            3549            4013     78.9229E-03     76.3811E-03
            3549            4014     73.0705E-03     78.1356E-03
            3550             100     42.8231E-03     42.6292E-03
            3550             101     41.2470E-03     43.8739E-03
            3550            4014     73.0705E-03     78.1356E-03
            3550            4015     74.2960E-03     73.3298E-03
            3551              99     42.5906E-03     42.6746E-03
            3551             100     42.8231E-03     42.6292E-03
            3551            4015     74.2960E-03     73.3298E-03
            3551            4016     70.6161E-03     73.4867E-03
            3552              98     42.4651E-03     40.7087E-03
            3552              99     42.5906E-03     42.6746E-03
            3552            4016     70.6161E-03     73.4867E-03
            3552            4017     70.5377E-03     68.2814E-03
            3553              97     41.0710E-03     40.9814E-03
            3553              98     42.4651E-03     40.7087E-03
            3553            4017     70.5377E-03     68.2814E-03
            3553            4018     66.1787E-03     63.8010E-03
            3554              96     39.5036E-03     41.6288E-03
            3554              97     41.0710E-03     40.9814E-03
            3554            4018     66.1787E-03     63.8010E-03
            3554            4019     59.8715E-03     67.3962E-03
            3555              95     43.1418E-03     41.5571E-03
            3555              96     39.5036E-03     41.6288E-03
            3555            4019     59.8715E-03     67.3962E-03
            3555            4020     69.6846E-03     66.7690E-03
            3556              94     43.1411E-03     44.0575E-03
            3556              95     43.1418E-03     41.5571E-03
            3556            4020     69.6846E-03     66.7690E-03
            3556            4021     71.6136E-03     68.7255E-03
            3557              93     40.6201E-03     43.9790E-03
            3557              94     43.1411E-03     44.0575E-03
            3557            4021     71.6136E-03     68.7255E-03
            3557            4022     65.8530E-03     69.7611E-03
            3558              92     41.7049E-03     42.7576E-03
            3558              93     40.6201E-03     43.9790E-03
            3558            4022     65.8530E-03     69.7611E-03
            3558            4023     66.8139E-03     65.8066E-03
            3559              91     41.5240E-03     42.2080E-03
            3559              92     41.7049E-03     42.7576E-03
            3559            4023     66.8139E-03     65.8066E-03
            3559            4024     64.8916E-03     64.8907E-03
            3560              90     41.3126E-03     40.7548E-03
            3560              91     41.5240E-03     42.2080E-03
            3560            4024     64.8916E-03     64.8907E-03
            3560            4025     62.7790E-03     62.6338E-03
            3561              89     41.0771E-03     39.4418E-03
            3561              90     41.3126E-03     40.7548E-03
            3561            4025     62.7790E-03     62.6338E-03
            3561            4026     60.9518E-03     59.6808E-03
            3562              88     40.6258E-03     38.6864E-03
            3562              89     41.0771E-03     39.4418E-03
            3562            4026     60.9518E-03     59.6808E-03
            3562            4027     57.6121E-03     58.2766E-03
            3563              87     39.9396E-03     37.3034E-03
            3563              88     40.6258E-03     38.6864E-03
            3563            4027     57.6121E-03     58.2766E-03
            3563            4028     56.8428E-03     54.1467E-03
            3564              86     38.5477E-03     37.8285E-03
            3564              87     39.9396E-03     37.3034E-03
            3564            4028     56.8428E-03     54.1467E-03
            3564            4029     53.1214E-03     51.1645E-03
            3565              85     38.1479E-03     39.1088E-03
            3565              86     38.5477E-03     37.8285E-03
            3565            4029     53.1214E-03     51.1645E-03
            3565            4030     49.9617E-03     54.8992E-03
            3566              84     41.3963E-03     40.0472E-03
            3566              85     38.1479E-03     39.1088E-03
            3566            4030     49.9617E-03     54.8992E-03
            3566            4031     57.9449E-03     55.7211E-03
            3567              83     41.2092E-03     41.9852E-03
            3567              84     41.3963E-03     40.0472E-03
            3567            4031     57.9449E-03     55.7211E-03
            3567            4032     58.8895E-03     56.8581E-03
            3568              82     39.2089E-03     41.7235E-03
            3568              83     41.2092E-03     41.9852E-03
            3568            4032     58.8895E-03     56.8581E-03
            3568            4033     54.0492E-03     56.9775E-03
            3569              81     39.9252E-03     40.7136E-03
            3569              82     39.2089E-03     41.7235E-03
            3569            4033     54.0492E-03     56.9775E-03
            3569            4034     54.2590E-03     53.5531E-03
            3570              80     39.7029E-03     40.1677E-03
            3570              81     39.9252E-03     40.7136E-03
            3570            4034     54.2590E-03     53.5531E-03
            3570            4035     52.4011E-03     52.3952E-03
            3571              79     39.5039E-03     39.0101E-03
            3571              80     39.7029E-03     40.1677E-03
            3571            4035     52.4011E-03     52.3952E-03
            3571            4036     50.3927E-03     50.3013E-03
            3572              78     39.3404E-03     38.0524E-03
            3572              79     39.5039E-03     39.0101E-03
            3572            4036     50.3927E-03     50.3013E-03
            3572            4037     48.7053E-03     47.8749E-03
            3573              77     39.0975E-03     37.4668E-03
            3573              78     39.3404E-03     38.0524E-03
            3573            4037     48.7053E-03     47.8749E-03
            3573            4038     46.2712E-03     46.2339E-03
            3574              76     38.5047E-03     36.6281E-03
            3574              77     39.0975E-03     37.4668E-03
            3574            4038     46.2712E-03     46.2339E-03
            3574            4039     44.9513E-03     43.3507E-03
            3575              75     37.6367E-03     37.0195E-03
            3575              76     38.5047E-03     36.6281E-03
            3575            4039     44.9513E-03     43.3507E-03
            3575            4040     42.5190E-03     41.3484E-03
            3576              74     37.9420E-03     38.0791E-03
            3576              75     37.6367E-03     37.0195E-03
            3576            4040     42.5190E-03     41.3484E-03
            3576            4041     41.6550E-03     44.0515E-03
            3577              73     40.2173E-03     39.1857E-03
            3577              74     37.9420E-03     38.0791E-03
            3577            4041     41.6550E-03     44.0515E-03
            3577            4042     46.8118E-03     45.3854E-03
            3578              72     40.0002E-03     40.4547E-03
            3578              73     40.2173E-03     39.1857E-03
            3578            4042     46.8118E-03     45.3854E-03
            3578            4043     46.9333E-03     45.7784E-03
            3579              71     38.7340E-03     40.0992E-03
            3579              72     40.0002E-03     40.4547E-03
            3579            4043     46.9333E-03     45.7784E-03
            3579            4044     43.4659E-03     45.2145E-03
            3580              70     39.1950E-03     39.3974E-03
            3580              71     38.7340E-03     40.0992E-03
            3580            4044     43.4659E-03     45.2145E-03
            3580            4045     43.0861E-03     42.7296E-03
            3581              69     39.0995E-03     38.9951E-03
            3581              70     39.1950E-03     39.3974E-03
            3581            4045     43.0861E-03     42.7296E-03
            3581            4046     41.5694E-03     41.6075E-03
            3582              68     39.0020E-03     38.4126E-03
            3582              69     39.0995E-03     38.9951E-03
            3582            4046     41.5694E-03     41.6075E-03
            3582            4047     40.0340E-03     39.9642E-03
            3583              67     38.9987E-03     38.0804E-03
            3583              68     39.0020E-03     38.4126E-03
            3583            4047     40.0340E-03     39.9642E-03
            3583            4048     38.8389E-03     38.4445E-03
            3584              66     38.7566E-03     37.7681E-03
            3584              67     38.9987E-03     38.0804E-03
            3584            4048     38.8389E-03     38.4445E-03
            3584            4049     37.6506E-03     37.0307E-03
            3585              65     38.3601E-03     37.8388E-03
            3585              66     38.7566E-03     37.7681E-03
            3585            4049     37.6506E-03     37.0307E-03
            3585            4050     36.5541E-03     36.0009E-03
            3586              64     38.9855E-03     38.6228E-03
            3586              65     38.3601E-03     37.8388E-03
            3586            4050     36.5541E-03     36.0009E-03
            3586            4051     37.0361E-03     37.4585E-03
            3587              63     40.4349E-03     39.6756E-03
            3587              64     38.9855E-03     38.6228E-03
            3587            4051     37.0361E-03     37.4585E-03
            3587            4052     39.4641E-03     38.7974E-03
            3588              62     40.3742E-03     40.3099E-03
            3588              63     40.4349E-03     39.6756E-03
            3588            4052     39.4641E-03     38.7974E-03
            3588            4053     39.2477E-03     38.7523E-03
            3589              61     39.8920E-03     40.1023E-03
            3589              62     40.3742E-03     40.3099E-03
            3589            4053     39.2477E-03     38.7523E-03
            3589            4054     37.6273E-03     38.1601E-03
            3590              60     40.1635E-03     39.8407E-03
            3590              61     39.8920E-03     40.1023E-03
            3590            4054     37.6273E-03     38.1601E-03
            3590            4055     37.3625E-03     37.1072E-03
            3591              59     40.0536E-03     39.8987E-03
            3591              60     40.1635E-03     39.8407E-03
            3591            4055     37.3625E-03     37.1072E-03
            3591            4056     36.8956E-03     36.7866E-03
            3592              58     40.1461E-03     39.8378E-03
            3592              59     40.0536E-03     39.8987E-03
            3592            4056     36.8956E-03     36.7866E-03
            3592            4057     36.8158E-03     36.5429E-03
            3593              57     40.0818E-03     39.5854E-03
            3593              58     40.1461E-03     39.8378E-03
            3593            4057     36.8158E-03     36.5429E-03
            3593            4058     36.6868E-03     36.3020E-03
            3594               2     20.4992E-03     20.2964E-03
            3594              57     40.0818E-03     39.5854E-03
            3594             470     18.7375E-03     18.6467E-03
            3594            4058     36.6868E-03     36.3020E-03
            3595             542     110.738E-03     119.436E-03
            3595             543     144.033E-03     157.747E-03
            3595            4012     76.4080E-03     73.4049E-03
            3595            4059     116.649E-03     111.840E-03
            3596            4012     76.4080E-03     73.4049E-03
            3596            4013     78.9229E-03     76.3811E-03
            3596            4059     116.649E-03     111.840E-03
            3596            4060     120.828E-03     114.033E-03
            3597            4013     78.9229E-03     76.3811E-03
            3597            4014     73.0705E-03     78.1356E-03
            3597            4060     120.828E-03     114.033E-03
            3597            4061     110.092E-03     115.847E-03
            3598            4014     73.0705E-03     78.1356E-03
            3598            4015     74.2960E-03     73.3298E-03
            3598            4061     110.092E-03     115.847E-03
            3598            4062     111.048E-03     107.323E-03
            3599            4015     74.2960E-03     73.3298E-03
            3599            4016     70.6161E-03     73.4867E-03
            3599            4062     111.048E-03     107.323E-03
            3599            4063     104.732E-03     109.032E-03
            3600            4016     70.6161E-03     73.4867E-03
            3600            4017     70.5377E-03     68.2814E-03
            3600            4063     104.732E-03     109.032E-03
            3600            4064     106.173E-03     102.298E-03
            3601            4017     70.5377E-03     68.2814E-03
            3601            4018     66.1787E-03     63.8010E-03
            3601            4064     106.173E-03     102.298E-03
            3601            4065     98.9089E-03     94.9045E-03
            3602            4018     66.1787E-03     63.8010E-03
            3602            4019     59.8715E-03     67.3962E-03
            3602            4065     98.9089E-03     94.9045E-03
            3602            4066     87.3035E-03     102.183E-03
            3603            4019     59.8715E-03     67.3962E-03
            3603            4020     69.6846E-03     66.7690E-03
            3603            4066     87.3035E-03     102.183E-03
            3603            4067     104.534E-03     100.273E-03
            3604            4020     69.6846E-03     66.7690E-03
            3604            4021     71.6136E-03     68.7255E-03
            3604            4067     104.534E-03     100.273E-03
            3604            4068     107.667E-03     100.580E-03
            3605            4021     71.6136E-03     68.7255E-03
            3605            4022     65.8530E-03     69.7611E-03
            3605            4068     107.667E-03     100.580E-03
            3605            4069     96.5632E-03     101.081E-03
            3606            4022     65.8530E-03     69.7611E-03
            3606            4023     66.8139E-03     65.8066E-03
            3606            4069     96.5632E-03     101.081E-03
            3606            4070     96.4502E-03     93.2202E-03
            3607            4023     66.8139E-03     65.8066E-03
            3607            4024     64.8916E-03     64.8907E-03
            3607            4070     96.4502E-03     93.2202E-03
            3607            4071     92.3349E-03     91.4910E-03
            3608            4024     64.8916E-03     64.8907E-03
            3608            4025     62.7790E-03     62.6338E-03
            3608            4071     92.3349E-03     91.4910E-03
            3608            4072     88.6560E-03     88.4406E-03
            3609            4025     62.7790E-03     62.6338E-03
            3609            4026     60.9518E-03     59.6808E-03
            3609            4072     88.6560E-03     88.4406E-03
            3609            4073     86.0746E-03     84.5058E-03
            3610            4026     60.9518E-03     59.6808E-03
            3610            4027     57.6121E-03     58.2766E-03
            3610            4073     86.0746E-03     84.5058E-03
            3610            4074     80.9093E-03     84.1831E-03
            3611            4027     57.6121E-03     58.2766E-03
            3611            4028     56.8428E-03     54.1467E-03
            3611            4074     80.9093E-03     84.1831E-03
            3611            4075     81.5748E-03     78.6061E-03
            3612            4028     56.8428E-03     54.1467E-03
            3612            4029     53.1214E-03     51.1645E-03
            3612            4075     81.5748E-03     78.6061E-03
            3612            4076     75.6358E-03     73.0661E-03
            3613            4029     53.1214E-03     51.1645E-03
            3613            4030     49.9617E-03     54.8992E-03
            3613            4076     75.6358E-03     73.0661E-03
            3613            4077     68.2803E-03     79.3702E-03
            3614            4030     49.9617E-03     54.8992E-03
            3614            4031     57.9449E-03     55.7211E-03
            3614            4077     68.2803E-03     79.3702E-03
            3614            4078     81.9134E-03     78.6613E-03
            3615            4031     57.9449E-03     55.7211E-03
            3615            4032     58.8895E-03     56.8581E-03
            3615            4078     81.9134E-03     78.6613E-03
            3615            4079     83.5092E-03     77.9145E-03
            3616            4032     58.8895E-03     56.8581E-03
            3616            4033     54.0492E-03     56.9775E-03
            3616            4079     83.5092E-03     77.9145E-03
            3616            4080     73.9976E-03     77.3220E-03
            3617            4033     54.0492E-03     56.9775E-03
            3617            4034     54.2590E-03     53.5531E-03
            3617            4080     73.9976E-03     77.3220E-03
            3617            4081     72.9814E-03     70.5215E-03
            3618            4034     54.2590E-03     53.5531E-03
            3618            4035     52.4011E-03     52.3952E-03
            3618            4081     72.9814E-03     70.5215E-03
            3618            4082     69.0061E-03     68.3686E-03
            3619            4035     52.4011E-03     52.3952E-03
            3619            4036     50.3927E-03     50.3013E-03
            3619            4082     69.0061E-03     68.3686E-03
            3619            4083     65.2304E-03     65.2531E-03
            3620            4036     50.3927E-03     50.3013E-03
            3620            4037     48.7053E-03     47.8749E-03
            3620            4083     65.2304E-03     65.2531E-03
            3620            4084     62.3393E-03     61.6246E-03
            3621            4037     48.7053E-03     47.8749E-03
            3621            4038     46.2712E-03     46.2339E-03
            3621            4084     62.3393E-03     61.6246E-03
            3621            4085     57.9881E-03     60.0027E-03
            3622            4038     46.2712E-03     46.2339E-03
            3622            4039     44.9513E-03     43.3507E-03
            3622            4085     57.9881E-03     60.0027E-03
            3622            4086     56.6634E-03     55.4951E-03
            3623            4039     44.9513E-03     43.3507E-03
            3623            4040     42.5190E-03     41.3484E-03
            3623            4086     56.6634E-03     55.4951E-03
            3623            4087     52.3596E-03     50.9779E-03
            3624            4040     42.5190E-03     41.3484E-03
            3624            4041     41.6550E-03     44.0515E-03
            3624            4087     52.3596E-03     50.9779E-03
            3624            4088     49.0374E-03     55.4854E-03
            3625            4041     41.6550E-03     44.0515E-03
            3625            4042     46.8118E-03     45.3854E-03
            3625            4088     49.0374E-03     55.4854E-03
            3625            4089     58.0629E-03     55.9683E-03
            3626            4042     46.8118E-03     45.3854E-03
            3626            4043     46.9333E-03     45.7784E-03
            3626            4089     58.0629E-03     55.9683E-03
            3626            4090     58.1410E-03     54.3510E-03
            3627            4043     46.9333E-03     45.7784E-03
            3627            4044     43.4659E-03     45.2145E-03
            3627            4090     58.1410E-03     54.3510E-03
            3627            4091     50.8600E-03     52.8873E-03
            3628            4044     43.4659E-03     45.2145E-03
            3628            4045     43.0861E-03     42.7296E-03
            3628            4091     50.8600E-03     52.8873E-03
            3628            4092     49.0948E-03     47.8304E-03
            3629            4045     43.0861E-03     42.7296E-03
            3629            4046     41.5694E-03     41.6075E-03
            3629            4092     49.0948E-03     47.8304E-03
            3629            4093     45.7250E-03     45.5869E-03
            3630            4046     41.5694E-03     41.6075E-03
            3630            4047     40.0340E-03     39.9642E-03
            3630            4093     45.7250E-03     45.5869E-03
            3630            4094     42.3702E-03     42.7405E-03
            3631            4047     40.0340E-03     39.9642E-03
            3631            4048     38.8389E-03     38.4445E-03
            3631            4094     42.3702E-03     42.7405E-03
            3631            4095     39.4382E-03     40.0791E-03
            3632            4048     38.8389E-03     38.4445E-03
            3632            4049     37.6506E-03     37.0307E-03
            3632            4095     39.4382E-03     40.0791E-03
            3632            4096     36.8938E-03     37.1783E-03
            3633            4049     37.6506E-03     37.0307E-03
            3633            4050     36.5541E-03     36.0009E-03
            3633            4096     36.8938E-03     37.1783E-03
            3633            4097     34.5041E-03     34.2338E-03
            3634            4050     36.5541E-03     36.0009E-03
            3634            4051     37.0361E-03     37.4585E-03
            3634            4097     34.5041E-03     34.2338E-03
            3634            4098     34.5304E-03     36.4905E-03
            3635            4051     37.0361E-03     37.4585E-03
            3635            4052     39.4641E-03     38.7974E-03
            3635            4098     34.5304E-03     36.4905E-03
            3635            4099     38.5104E-03     37.6747E-03
            3636            4052     39.4641E-03     38.7974E-03
            3636            4053     39.2477E-03     38.7523E-03
            3636            4099     38.5104E-03     37.6747E-03
            3636            4100     37.6856E-03     35.9504E-03
            3637            4053     39.2477E-03     38.7523E-03
            3637            4054     37.6273E-03     38.1601E-03
            3637            4100     37.6856E-03     35.9504E-03
            3637            4101     33.7897E-03     34.7320E-03
            3638            4054     37.6273E-03     38.1601E-03
            3638            4055     37.3625E-03     37.1072E-03
            3638            4101     33.7897E-03     34.7320E-03
            3638            4102     32.5581E-03     32.5651E-03
            3639            4055     37.3625E-03     37.1072E-03
            3639            4056     36.8956E-03     36.7866E-03
            3639            4102     32.5581E-03     32.5651E-03
            3639            4103     31.2909E-03     31.4645E-03
            3640            4056     36.8956E-03     36.7866E-03
            3640            4057     36.8158E-03     36.5429E-03
            3640            4103     31.2909E-03     31.4645E-03
            3640            4104     30.6226E-03     30.6233E-03
            3641            4057     36.8158E-03     36.5429E-03
            3641            4058     36.6868E-03     36.3020E-03
            3641            4104     30.6226E-03     30.6233E-03
            3641            4105     30.4366E-03     30.3682E-03
            3642             469     15.6405E-03     15.6957E-03
            3642             470     18.7375E-03     18.6467E-03
            3642            4058     36.6868E-03     36.3020E-03
            3642            4105     30.4366E-03     30.3682E-03
            3643             543     144.033E-03     157.747E-03
            3643             544     174.028E-03     194.151E-03
            3643            4059     116.649E-03     111.840E-03
            3643            4106     153.678E-03     148.205E-03
            3644            4059     116.649E-03     111.840E-03
            3644            4060     120.828E-03     114.033E-03
            3644            4106     153.678E-03     148.205E-03
            3644            4107     156.374E-03     145.045E-03
            3645            4060     120.828E-03     114.033E-03
            3645            4061     110.092E-03     115.847E-03
            3645            4107     156.374E-03     145.045E-03
            3645            4108     138.379E-03     146.405E-03
            3646            4061     110.092E-03     115.847E-03
            3646            4062     111.048E-03     107.323E-03
            3646            4108     138.379E-03     146.405E-03
            3646            4109     139.470E-03     133.713E-03
            3647            4062     111.048E-03     107.323E-03
            3647            4063     104.732E-03     109.032E-03
            3647            4109     139.470E-03     133.713E-03
            3647            4110     131.844E-03     138.020E-03
            3648            4063     104.732E-03     109.032E-03
            3648            4064     106.173E-03     102.298E-03
            3648            4110     131.844E-03     138.020E-03
            3648            4111     138.126E-03     131.495E-03
            3649            4064     106.173E-03     102.298E-03
            3649            4065     98.9089E-03     94.9045E-03
            3649            4111     138.126E-03     131.495E-03
            3649            4112     131.092E-03     126.780E-03
            3650            4065     98.9089E-03     94.9045E-03
            3650            4066     87.3035E-03     102.183E-03
            3650            4112     131.092E-03     126.780E-03
            3650            4113     114.320E-03     141.294E-03
            3651            4066     87.3035E-03     102.183E-03
            3651            4067     104.534E-03     100.273E-03
            3651            4113     114.320E-03     141.294E-03
            3651            4114     137.578E-03     133.531E-03
            3652            4067     104.534E-03     100.273E-03
            3652            4068     107.667E-03     100.580E-03
            3652            4114     137.578E-03     133.531E-03
            3652            4115     139.270E-03     128.950E-03
            3653            4068     107.667E-03     100.580E-03
            3653            4069     96.5632E-03     101.081E-03
            3653            4115     139.270E-03     128.950E-03
            3653            4116     120.748E-03     128.874E-03
            3654            4069     96.5632E-03     101.081E-03
            3654            4070     96.4502E-03     93.2202E-03
            3654            4116     120.748E-03     128.874E-03
            3654            4117     119.607E-03     116.958E-03
            3655            4070     96.4502E-03     93.2202E-03
            3655            4071     92.3349E-03     91.4910E-03
            3655            4117     119.607E-03     116.958E-03
            3655            4118     113.487E-03     114.429E-03
            3656            4071     92.3349E-03     91.4910E-03
            3656            4072     88.6560E-03     88.4406E-03
            3656            4118     113.487E-03     114.429E-03
            3656            4119     108.794E-03     110.339E-03
            3657            4072     88.6560E-03     88.4406E-03
            3657            4073     86.0746E-03     84.5058E-03
            3657            4119     108.794E-03     110.339E-03
            3657            4120     106.627E-03     105.181E-03
            3658            4073     86.0746E-03     84.5058E-03
            3658            4074     80.9093E-03     84.1831E-03
            3658            4120     106.627E-03     105.181E-03
            3658            4121     100.996E-03     106.832E-03
            3659            4074     80.9093E-03     84.1831E-03
            3659            4075     81.5748E-03     78.6061E-03
            3659            4121     100.996E-03     106.832E-03
            3659            4122     106.089E-03     101.558E-03
            3660            4075     81.5748E-03     78.6061E-03
            3660            4076     75.6358E-03     73.0661E-03
            3660            4122     106.089E-03     101.558E-03
            3660            4123     100.175E-03     98.0200E-03
            3661            4076     75.6358E-03     73.0661E-03
            3661            4077     68.2803E-03     79.3702E-03
            3661            4123     100.175E-03     98.0200E-03
            3661            4124     87.8546E-03     108.700E-03
            3662            4077     68.2803E-03     79.3702E-03
            3662            4078     81.9134E-03     78.6613E-03
            3662            4124     87.8546E-03     108.700E-03
            3662            4125     105.478E-03     102.361E-03
            3663            4078     81.9134E-03     78.6613E-03
            3663            4079     83.5092E-03     77.9145E-03
            3663            4125     105.478E-03     102.361E-03
            3663            4126     105.844E-03     97.6077E-03
            3664            4079     83.5092E-03     77.9145E-03
            3664            4080     73.9976E-03     77.3220E-03
            3664            4126     105.844E-03     97.6077E-03
            3664            4127     90.3522E-03     96.5509E-03
            3665            4080     73.9976E-03     77.3220E-03
            3665            4081     72.9814E-03     70.5215E-03
            3665            4127     90.3522E-03     96.5509E-03
            3665            4128     88.3120E-03     86.2747E-03
            3666            4081     72.9814E-03     70.5215E-03
            3666            4082     69.0061E-03     68.3686E-03
            3666            4128     88.3120E-03     86.2747E-03
            3666            4129     82.5018E-03     83.0605E-03
            3667            4082     69.0061E-03     68.3686E-03
            3667            4083     65.2304E-03     65.2531E-03
            3667            4129     82.5018E-03     83.0605E-03
            3667            4130     77.4887E-03     78.6921E-03
            3668            4083     65.2304E-03     65.2531E-03
            3668            4084     62.3393E-03     61.6246E-03
            3668            4130     77.4887E-03     78.6921E-03
            3668            4131     74.4504E-03     73.7013E-03
            3669            4084     62.3393E-03     61.6246E-03
            3669            4085     57.9881E-03     60.0027E-03
            3669            4131     74.4504E-03     73.7013E-03
            3669            4132     69.2765E-03     72.9916E-03
            3670            4085     57.9881E-03     60.0027E-03
            3670            4086     56.6634E-03     55.4951E-03
            3670            4132     69.2765E-03     72.9916E-03
            3670            4133     70.3326E-03     68.3972E-03
            3671            4086     56.6634E-03     55.4951E-03
            3671            4087     52.3596E-03     50.9779E-03
            3671            4133     70.3326E-03     68.3972E-03
            3671            4134     65.5312E-03     64.5075E-03
            3672            4087     52.3596E-03     50.9779E-03
            3672            4088     49.0374E-03     55.4854E-03
            3672            4134     65.5312E-03     64.5075E-03
            3672            4135     58.5187E-03     71.6219E-03
            3673            4088     49.0374E-03     55.4854E-03
            3673            4089     58.0629E-03     55.9683E-03
            3673            4135     58.5187E-03     71.6219E-03
            3673            4136     70.0841E-03     68.0130E-03
            3674            4089     58.0629E-03     55.9683E-03
            3674            4090     58.1410E-03     54.3510E-03
            3674            4136     70.0841E-03     68.0130E-03
            3674            4137     69.0756E-03     63.2442E-03
            3675            4090     58.1410E-03     54.3510E-03
            3675            4091     50.8600E-03     52.8873E-03
            3675            4137     69.0756E-03     63.2442E-03
            3675            4138     57.3377E-03     61.1994E-03
            3676            4091     50.8600E-03     52.8873E-03
            3676            4092     49.0948E-03     47.8304E-03
            3676            4138     57.3377E-03     61.1994E-03
            3676            4139     54.4404E-03     53.1733E-03
            3677            4092     49.0948E-03     47.8304E-03
            3677            4093     45.7250E-03     45.5869E-03
            3677            4139     54.4404E-03     53.1733E-03
            3677            4140     49.4999E-03     49.5919E-03
            3678            4093     45.7250E-03     45.5869E-03
            3678            4094     42.3702E-03     42.7405E-03
            3678            4140     49.4999E-03     49.5919E-03
            3678            4141     44.7476E-03     45.1841E-03
            3679            4094     42.3702E-03     42.7405E-03
            3679            4095     39.4382E-03     40.0791E-03
            3679            4141     44.7476E-03     45.1841E-03
            3679            4142     40.6701E-03     41.8758E-03
            3680            4095     39.4382E-03     40.0791E-03
            3680            4096     36.8938E-03     37.1783E-03
            3680            4142     40.6701E-03     41.8758E-03
            3680            4143     37.9216E-03     38.4615E-03
            3681            4096     36.8938E-03     37.1783E-03
            3681            4097     34.5041E-03     34.2338E-03
            3681            4143     37.9216E-03     38.4615E-03
            3681            4144     34.4153E-03     34.5694E-03
            3682            4097     34.5041E-03     34.2338E-03
            3682            4098     34.5304E-03     36.4905E-03
            3682            4144     34.4153E-03     34.5694E-03
            3682            4145     32.4970E-03     37.7403E-03
            3683            4098     34.5304E-03     36.4905E-03
            3683            4099     38.5104E-03     37.6747E-03
            3683            4145     32.4970E-03     37.7403E-03
            3683            4146     37.5220E-03     36.7750E-03
            3684            4099     38.5104E-03     37.6747E-03
            3684            4100     37.6856E-03     35.9504E-03
            3684            4146     37.5220E-03     36.7750E-03
            3684            4147     35.7068E-03     32.6102E-03
            3685            4100     37.6856E-03     35.9504E-03
            3685            4101     33.7897E-03     34.7320E-03
            3685            4147     35.7068E-03     32.6102E-03
            3685            4148     28.8433E-03     30.6439E-03
            3686            4101     33.7897E-03     34.7320E-03
            3686            4102     32.5581E-03     32.5651E-03
            3686            4148     28.8433E-03     30.6439E-03
            3686            4149     26.5877E-03     26.3076E-03
            3687            4102     32.5581E-03     32.5651E-03
            3687            4103     31.2909E-03     31.4645E-03
            3687            4149     26.5877E-03     26.3076E-03
            3687            4150     24.0750E-03     24.1812E-03
            3688            4103     31.2909E-03     31.4645E-03
            3688            4104     30.6226E-03     30.6233E-03
            3688            4150     24.0750E-03     24.1812E-03
            3688            4151     22.1877E-03     22.8468E-03
            3689            4104     30.6226E-03     30.6233E-03
            3689            4105     30.4366E-03     30.3682E-03
            3689            4151     22.1877E-03     22.8468E-03
            3689            4152     21.6099E-03     22.4475E-03
            3690             468     11.1027E-03     11.6791E-03
            3690             469     15.6405E-03     15.6957E-03
            3690            4105     30.4366E-03     30.3682E-03
            3690            4152     21.6099E-03     22.4475E-03
            3691             544     174.028E-03     194.151E-03
            3691             545     197.657E-03     223.198E-03
            3691            4106     153.678E-03     148.205E-03
            3691            4153     182.517E-03     179.678E-03
            3692            4106     153.678E-03     148.205E-03
            3692            4107     156.374E-03     145.045E-03
            3692            4153     182.517E-03     179.678E-03
            3692            4154     181.004E-03     171.886E-03
            3693            4107     156.374E-03     145.045E-03
            3693            4108     138.379E-03     146.405E-03
            3693            4154     181.004E-03     171.886E-03
            3693            4155     156.582E-03     172.010E-03
            3694            4108     138.379E-03     146.405E-03
            3694            4109     139.470E-03     133.713E-03
            3694            4155     156.582E-03     172.010E-03
            3694            4156     159.195E-03     155.698E-03
            3695            4109     139.470E-03     133.713E-03
            3695            4110     131.844E-03     138.020E-03
            3695            4156     159.195E-03     155.698E-03
            3695            4157     148.689E-03     161.129E-03
            3696            4110     131.844E-03     138.020E-03
            3696            4111     138.126E-03     131.495E-03
            3696            4157     148.689E-03     161.129E-03
            3696            4158     159.421E-03     154.389E-03
            3697            4111     138.126E-03     131.495E-03
            3697            4112     131.092E-03     126.780E-03
            3697            4158     159.421E-03     154.389E-03
            3697            4159     156.303E-03     153.701E-03
            3698            4112     131.092E-03     126.780E-03
            3698            4113     114.320E-03     141.294E-03
            3698            4159     156.303E-03     153.701E-03
            3698            4160     136.322E-03     174.228E-03
            3699            4113     114.320E-03     141.294E-03
            3699            4114     137.578E-03     133.531E-03
            3699            4160     136.322E-03     174.228E-03
            3699            4161     163.080E-03     161.323E-03
            3700            4114     137.578E-03     133.531E-03
            3700            4115     139.270E-03     128.950E-03
            3700            4161     163.080E-03     161.323E-03
            3700            4162     161.737E-03     153.241E-03
            3701            4115     139.270E-03     128.950E-03
            3701            4116     120.748E-03     128.874E-03
            3701            4162     161.737E-03     153.241E-03
            3701            4163     137.729E-03     152.124E-03
            3702            4116     120.748E-03     128.874E-03
            3702            4117     119.607E-03     116.958E-03
            3702            4163     137.729E-03     152.124E-03
            3702            4164     137.345E-03     137.692E-03
            3703            4117     119.607E-03     116.958E-03
            3703            4118     113.487E-03     114.429E-03
            3703            4164     137.345E-03     137.692E-03
            3703            4165     129.369E-03     134.883E-03
            3704            4118     113.487E-03     114.429E-03
            3704            4119     108.794E-03     110.339E-03
            3704            4165     129.369E-03     134.883E-03
            3704            4166     123.839E-03     129.594E-03
            3705            4119     108.794E-03     110.339E-03
            3705            4120     106.627E-03     105.181E-03
            3705            4166     123.839E-03     129.594E-03
            3705            4167     121.735E-03     122.782E-03
            3706            4120     106.627E-03     105.181E-03
            3706            4121     100.996E-03     106.832E-03
            3706            4167     121.735E-03     122.782E-03
            3706            4168     114.253E-03     124.347E-03
            3707            4121     100.996E-03     106.832E-03
            3707            4122     106.089E-03     101.558E-03
            3707            4168     114.253E-03     124.347E-03
            3707            4169     122.739E-03     118.999E-03
            3708            4122     106.089E-03     101.558E-03
            3708            4123     100.175E-03     98.0200E-03
            3708            4169     122.739E-03     118.999E-03
            3708            4170     119.506E-03     118.551E-03
            3709            4123     100.175E-03     98.0200E-03
            3709            4124     87.8546E-03     108.700E-03
            3709            4170     119.506E-03     118.551E-03
            3709            4171     104.333E-03     133.448E-03
            3710            4124     87.8546E-03     108.700E-03
            3710            4125     105.478E-03     102.361E-03
            3710            4171     104.333E-03     133.448E-03
            3710            4172     124.211E-03     122.884E-03
            3711            4125     105.478E-03     102.361E-03
            3711            4126     105.844E-03     97.6077E-03
            3711            4172     124.211E-03     122.884E-03
            3711            4173     122.364E-03     115.507E-03
            3712            4126     105.844E-03     97.6077E-03
            3712            4127     90.3522E-03     96.5509E-03
            3712            4173     122.364E-03     115.507E-03
            3712            4174     102.401E-03     113.414E-03
            3713            4127     90.3522E-03     96.5509E-03
            3713            4128     88.3120E-03     86.2747E-03
            3713            4174     102.401E-03     113.414E-03
            3713            4175     100.600E-03     100.711E-03
            3714            4128     88.3120E-03     86.2747E-03
            3714            4129     82.5018E-03     83.0605E-03
            3714            4175     100.600E-03     100.711E-03
            3714            4176     93.0152E-03     96.8566E-03
            3715            4129     82.5018E-03     83.0605E-03
            3715            4130     77.4887E-03     78.6921E-03
            3715            4176     93.0152E-03     96.8566E-03
            3715            4177     86.9919E-03     91.0906E-03
            3716            4130     77.4887E-03     78.6921E-03
            3716            4131     74.4504E-03     73.7013E-03
            3716            4177     86.9919E-03     91.0906E-03
            3716            4178     83.5966E-03     84.4638E-03
            3717            4131     74.4504E-03     73.7013E-03
            3717            4132     69.2765E-03     72.9916E-03
            3717            4178     83.5966E-03     84.4638E-03
            3717            4179     76.8418E-03     83.1559E-03
            3718            4132     69.2765E-03     72.9916E-03
            3718            4133     70.3326E-03     68.3972E-03
            3718            4179     76.8418E-03     83.1559E-03
            3718            4180     79.8999E-03     78.2400E-03
            3719            4133     70.3326E-03     68.3972E-03
            3719            4134     65.5312E-03     64.5075E-03
            3719            4180     79.8999E-03     78.2400E-03
            3719            4181     76.7994E-03     76.3747E-03
            3720            4134     65.5312E-03     64.5075E-03
            3720            4135     58.5187E-03     71.6219E-03
            3720            4181     76.7994E-03     76.3747E-03
            3720            4182     67.6028E-03     86.3568E-03
            3721            4135     58.5187E-03     71.6219E-03
            3721            4136     70.0841E-03     68.0130E-03
            3721            4182     67.6028E-03     86.3568E-03
            3721            4183     80.6987E-03     79.8834E-03
            3722            4136     70.0841E-03     68.0130E-03
            3722            4137     69.0756E-03     63.2442E-03
            3722            4183     80.6987E-03     79.8834E-03
            3722            4184     78.2301E-03     73.2496E-03
            3723            4137     69.0756E-03     63.2442E-03
            3723            4138     57.3377E-03     61.1994E-03
            3723            4184     78.2301E-03     73.2496E-03
            3723            4185     62.9167E-03     69.9644E-03
            3724            4138     57.3377E-03     61.1994E-03
            3724            4139     54.4404E-03     53.1733E-03
            3724            4185     62.9167E-03     69.9644E-03
            3724            4186     59.4865E-03     59.3201E-03
            3725            4139     54.4404E-03     53.1733E-03
            3725            4140     49.4999E-03     49.5919E-03
            3725            4186     59.4865E-03     59.3201E-03
            3725            4187     52.6096E-03     54.5529E-03
            3726            4140     49.4999E-03     49.5919E-03
            3726            4141     44.7476E-03     45.1841E-03
            3726            4187     52.6096E-03     54.5529E-03
            3726            4188     46.7315E-03     48.0801E-03
            3727            4141     44.7476E-03     45.1841E-03
            3727            4142     40.6701E-03     41.8758E-03
            3727            4188     46.7315E-03     48.0801E-03
            3727            4189     41.4038E-03     43.4236E-03
            3728            4142     40.6701E-03     41.8758E-03
            3728            4143     37.9216E-03     38.4615E-03
            3728            4189     41.4038E-03     43.4236E-03
            3728            4190     38.7281E-03     39.2808E-03
            3729            4143     37.9216E-03     38.4615E-03
            3729            4144     34.4153E-03     34.5694E-03
            3729            4190     38.7281E-03     39.2808E-03
            3729            4191     35.7959E-03     35.9054E-03
            3730            4144     34.4153E-03     34.5694E-03
            3730            4145     32.4970E-03     37.7403E-03
            3730            4191     35.7959E-03     35.9054E-03
            3730            4192     32.2655E-03     40.7166E-03
            3731            4145     32.4970E-03     37.7403E-03
            3731            4146     37.5220E-03     36.7750E-03
            3731            4192     32.2655E-03     40.7166E-03
            3731            4193     38.2338E-03     38.2181E-03
            3732            4146     37.5220E-03     36.7750E-03
            3732            4147     35.7068E-03     32.6102E-03
            3732            4193     38.2338E-03     38.2181E-03
            3732            4194     35.3330E-03     32.2089E-03
            3733            4147     35.7068E-03     32.6102E-03
            3733            4148     28.8433E-03     30.6439E-03
            3733            4194     35.3330E-03     32.2089E-03
            3733            4195     24.8036E-03     28.0310E-03
            3734            4148     28.8433E-03     30.6439E-03
            3734            4149     26.5877E-03     26.3076E-03
            3734            4195     24.8036E-03     28.0310E-03
            3734            4196     20.6379E-03     20.1975E-03
            3735            4149     26.5877E-03     26.3076E-03
            3735            4150     24.0750E-03     24.1812E-03
            3735            4196     20.6379E-03     20.1975E-03
            3735            4197     15.9313E-03     15.4151E-03
            3736            4150     24.0750E-03     24.1812E-03
            3736            4151     22.1877E-03     22.8468E-03
            3736            4197     15.9313E-03     15.4151E-03
            3736            4198     13.0876E-03     13.0260E-03
            3737            4151     22.1877E-03     22.8468E-03
            3737            4152     21.6099E-03     22.4475E-03
            3737            4198     13.0876E-03     13.0260E-03
            3737            4199     12.4573E-03     13.8288E-03
            3738             467     6.30867E-03     7.58691E-03
            3738             468     11.1027E-03     11.6791E-03
            3738            4152     21.6099E-03     22.4475E-03
            3738            4199     12.4573E-03     13.8288E-03
            3739             545     197.657E-03     223.198E-03
            3739             546     214.100E-03     235.141E-03
            3739            4153     182.517E-03     179.678E-03
            3739            4200     203.376E-03     199.192E-03
            3740            4153     182.517E-03     179.678E-03
            3740            4154     181.004E-03     171.886E-03
            3740            4200     203.376E-03     199.192E-03
            3740            4201     195.891E-03     188.238E-03
            3741            4154     181.004E-03     171.886E-03
            3741            4155     156.582E-03     172.010E-03
            3741            4201     195.891E-03     188.238E-03
            3741            4202     173.045E-03     186.233E-03
            3742            4155     156.582E-03     172.010E-03
            3742            4156     159.195E-03     155.698E-03
            3742            4202     173.045E-03     186.233E-03
            3742            4203     174.704E-03     170.760E-03
            3743            4156     159.195E-03     155.698E-03
            3743            4157     148.689E-03     161.129E-03
            3743            4203     174.704E-03     170.760E-03
            3743            4204     162.744E-03     173.506E-03
            3744            4157     148.689E-03     161.129E-03
            3744            4158     159.421E-03     154.389E-03
            3744            4204     162.744E-03     173.506E-03
            3744            4205     170.140E-03     165.088E-03
            3745            4158     159.421E-03     154.389E-03
            3745            4159     156.303E-03     153.701E-03
            3745            4205     170.140E-03     165.088E-03
            3745            4206     168.575E-03     164.318E-03
            3746            4159     156.303E-03     153.701E-03
            3746            4160     136.322E-03     174.228E-03
            3746            4206     168.575E-03     164.318E-03
            3746            4207     157.217E-03     187.432E-03
            3747            4160     136.322E-03     174.228E-03
            3747            4161     163.080E-03     161.323E-03
            3747            4207     157.217E-03     187.432E-03
            3747            4208     181.467E-03     177.965E-03
            3748            4161     163.080E-03     161.323E-03
            3748            4162     161.737E-03     153.241E-03
            3748            4208     181.467E-03     177.965E-03
            3748            4209     174.482E-03     167.397E-03
            3749            4162     161.737E-03     153.241E-03
            3749            4163     137.729E-03     152.124E-03
            3749            4209     174.482E-03     167.397E-03
            3749            4210     152.850E-03     164.123E-03
            3750            4163     137.729E-03     152.124E-03
            3750            4164     137.345E-03     137.692E-03
            3750            4210     152.850E-03     164.123E-03
            3750            4211     151.852E-03     150.972E-03
            3751            4164     137.345E-03     137.692E-03
            3751            4165     129.369E-03     134.883E-03
            3751            4211     151.852E-03     150.972E-03
            3751            4212     143.454E-03     147.540E-03
            3752            4165     129.369E-03     134.883E-03
            3752            4166     123.839E-03     129.594E-03
            3752            4212     143.454E-03     147.540E-03
            3752            4213     137.666E-03     141.421E-03
            3753            4166     123.839E-03     129.594E-03
            3753            4167     121.735E-03     122.782E-03
            3753            4213     137.666E-03     141.421E-03
            3753            4214     133.908E-03     134.092E-03
            3754            4167     121.735E-03     122.782E-03
            3754            4168     114.253E-03     124.347E-03
            3754            4214     133.908E-03     134.092E-03
            3754            4215     125.329E-03     132.792E-03
            3755            4168     114.253E-03     124.347E-03
            3755            4169     122.739E-03     118.999E-03
            3755            4215     125.329E-03     132.792E-03
            3755            4216     129.752E-03     125.868E-03
            3756            4169     122.739E-03     118.999E-03
            3756            4170     119.506E-03     118.551E-03
            3756            4216     129.752E-03     125.868E-03
            3756            4217     127.505E-03     124.270E-03
            3757            4170     119.506E-03     118.551E-03
            3757            4171     104.333E-03     133.448E-03
            3757            4217     127.505E-03     124.270E-03
            3757            4218     120.010E-03     142.982E-03
            3758            4171     104.333E-03     133.448E-03
            3758            4172     124.211E-03     122.884E-03
            3758            4218     120.010E-03     142.982E-03
            3758            4219     139.209E-03     136.696E-03
            3759            4172     124.211E-03     122.884E-03
            3759            4173     122.364E-03     115.507E-03
            3759            4219     139.209E-03     136.696E-03
            3759            4220     132.437E-03     126.824E-03
            3760            4173     122.364E-03     115.507E-03
            3760            4174     102.401E-03     113.414E-03
            3760            4220     132.437E-03     126.824E-03
            3760            4221     113.769E-03     122.492E-03
            3761            4174     102.401E-03     113.414E-03
            3761            4175     100.600E-03     100.711E-03
            3761            4221     113.769E-03     122.492E-03
            3761            4222     111.191E-03     110.363E-03
            3762            4175     100.600E-03     100.711E-03
            3762            4176     93.0152E-03     96.8566E-03
            3762            4222     111.191E-03     110.363E-03
            3762            4223     102.870E-03     105.831E-03
            3763            4176     93.0152E-03     96.8566E-03
            3763            4177     86.9919E-03     91.0906E-03
            3763            4223     102.870E-03     105.831E-03
            3763            4224     96.5201E-03     99.1147E-03
            3764            4177     86.9919E-03     91.0906E-03
            3764            4178     83.5966E-03     84.4638E-03
            3764            4224     96.5201E-03     99.1147E-03
            3764            4225     91.5001E-03     91.8376E-03
            3765            4178     83.5966E-03     84.4638E-03
            3765            4179     76.8418E-03     83.1559E-03
            3765            4225     91.5001E-03     91.8376E-03
            3765            4226     83.5690E-03     88.1097E-03
            3766            4179     76.8418E-03     83.1559E-03
            3766            4180     79.8999E-03     78.2400E-03
            3766            4226     83.5690E-03     88.1097E-03
            3766            4227     83.3609E-03     81.2463E-03
            3767            4180     79.8999E-03     78.2400E-03
            3767            4181     76.7994E-03     76.3747E-03
            3767            4227     83.3609E-03     81.2463E-03
            3767            4228     79.9920E-03     77.7820E-03
            3768            4181     76.7994E-03     76.3747E-03
            3768            4182     67.6028E-03     86.3568E-03
            3768            4228     79.9920E-03     77.7820E-03
            3768            4229     77.3758E-03     92.2416E-03
            3769            4182     67.6028E-03     86.3568E-03
            3769            4183     80.6987E-03     79.8834E-03
            3769            4229     77.3758E-03     92.2416E-03
            3769            4230     91.8027E-03     90.4054E-03
            3770            4183     80.6987E-03     79.8834E-03
            3770            4184     78.2301E-03     73.2496E-03
            3770            4230     91.8027E-03     90.4054E-03
            3770            4231     85.1701E-03     81.2236E-03
            3771            4184     78.2301E-03     73.2496E-03
            3771            4185     62.9167E-03     69.9644E-03
            3771            4231     85.1701E-03     81.2236E-03
            3771            4232     69.8064E-03     75.6116E-03
            3772            4185     62.9167E-03     69.9644E-03
            3772            4186     59.4865E-03     59.3201E-03
            3772            4232     69.8064E-03     75.6116E-03
            3772            4233     65.3615E-03     64.6382E-03
            3773            4186     59.4865E-03     59.3201E-03
            3773            4187     52.6096E-03     54.5529E-03
            3773            4233     65.3615E-03     64.6382E-03
            3773            4234     57.1284E-03     58.9132E-03
            3774            4187     52.6096E-03     54.5529E-03
            3774            4188     46.7315E-03     48.0801E-03
            3774            4234     57.1284E-03     58.9132E-03
            3774            4235     50.3918E-03     51.1314E-03
            3775            4188     46.7315E-03     48.0801E-03
            3775            4189     41.4038E-03     43.4236E-03
            3775            4235     50.3918E-03     51.1314E-03
            3775            4236     43.2732E-03     44.7215E-03
            3776            4189     41.4038E-03     43.4236E-03
            3776            4190     38.7281E-03     39.2808E-03
            3776            4236     43.2732E-03     44.7215E-03
            3776            4237     38.1354E-03     37.9233E-03
            3777            4190     38.7281E-03     39.2808E-03
            3777            4191     35.7959E-03     35.9054E-03
            3777            4237     38.1354E-03     37.9233E-03
            3777            4238     33.4356E-03     32.3527E-03
            3778            4191     35.7959E-03     35.9054E-03
            3778            4192     32.2655E-03     40.7166E-03
            3778            4238     33.4356E-03     32.3527E-03
            3778            4239     35.3175E-03     42.1736E-03
            3779            4192     32.2655E-03     40.7166E-03
            3779            4193     38.2338E-03     38.2181E-03
            3779            4239     35.3175E-03     42.1736E-03
            3779            4240     44.6799E-03     44.4909E-03
            3780            4193     38.2338E-03     38.2181E-03
            3780            4194     35.3330E-03     32.2089E-03
            3780            4240     44.6799E-03     44.4909E-03
            3780            4241     38.0952E-03     35.7381E-03
            3781            4194     35.3330E-03     32.2089E-03
            3781            4195     24.8036E-03     28.0310E-03
            3781            4241     38.0952E-03     35.7381E-03
            3781            4242     25.8976E-03     28.8087E-03
            3782            4195     24.8036E-03     28.0310E-03
            3782            4196     20.6379E-03     20.1975E-03
            3782            4242     25.8976E-03     28.8087E-03
            3782            4243     19.8517E-03     19.3207E-03
            3783            4196     20.6379E-03     20.1975E-03
            3783            4197     15.9313E-03     15.4151E-03
            3783            4243     19.8517E-03     19.3207E-03
            3783            4244     12.7947E-03     12.6455E-03
            3784            4197     15.9313E-03     15.4151E-03
            3784            4198     13.0876E-03     13.0260E-03
            3784            4244     12.7947E-03     12.6455E-03
            3784            4245     9.66286E-03     8.68674E-03
            3785            4198     13.0876E-03     13.0260E-03
            3785            4199     12.4573E-03     13.8288E-03
            3785            4245     9.66286E-03     8.68674E-03
            3785            4246     9.84162E-03     11.5778E-03
            3786             466     5.37090E-03     7.55025E-03
            3786             467     6.30867E-03     7.58691E-03
            3786            4199     12.4573E-03     13.8288E-03
            3786            4246     9.84162E-03     11.5778E-03
            3787              25     219.892E-03     227.888E-03
            3787             485     201.470E-03     197.877E-03
            3787             546     214.100E-03     235.141E-03
            3787            4200     203.376E-03     199.192E-03
            3788             485     201.470E-03     197.877E-03
            3788             486     194.563E-03     189.380E-03
            3788            4200     203.376E-03     199.192E-03
            3788            4201     195.891E-03     188.238E-03
            3789             486     194.563E-03     189.380E-03
            3789             487     182.497E-03     187.367E-03
            3789            4201     195.891E-03     188.238E-03
            3789            4202     173.045E-03     186.233E-03
            3790             487     182.497E-03     187.367E-03
            3790             488     180.324E-03     177.342E-03
            3790            4202     173.045E-03     186.233E-03
            3790            4203     174.704E-03     170.760E-03
            3791             488     180.324E-03     177.342E-03
            3791             489     171.965E-03     175.745E-03
            3791            4203     174.704E-03     170.760E-03
            3791            4204     162.744E-03     173.506E-03
            3792             489     171.965E-03     175.745E-03
            3792             490     170.670E-03     166.613E-03
            3792            4204     162.744E-03     173.506E-03
            3792            4205     170.140E-03     165.088E-03
            3793             490     170.670E-03     166.613E-03
            3793             491     165.456E-03     161.037E-03
            3793            4205     170.140E-03     165.088E-03
            3793            4206     168.575E-03     164.318E-03
            3794             491     165.456E-03     161.037E-03
            3794             492     164.757E-03     176.978E-03
            3794            4206     168.575E-03     164.318E-03
            3794            4207     157.217E-03     187.432E-03
            3795             492     164.757E-03     176.978E-03
            3795             493     178.417E-03     175.374E-03
            3795            4207     157.217E-03     187.432E-03
            3795            4208     181.467E-03     177.965E-03
            3796             493     178.417E-03     175.374E-03
            3796             494     171.090E-03     166.690E-03
            3796            4208     181.467E-03     177.965E-03
            3796            4209     174.482E-03     167.397E-03
            3797             494     171.090E-03     166.690E-03
            3797             495     159.586E-03     163.465E-03
            3797            4209     174.482E-03     167.397E-03
            3797            4210     152.850E-03     164.123E-03
            3798             495     159.586E-03     163.465E-03
            3798             496     156.224E-03     154.823E-03
            3798            4210     152.850E-03     164.123E-03
            3798            4211     151.852E-03     150.972E-03
            3799             496     156.224E-03     154.823E-03
            3799             497     149.838E-03     150.757E-03
            3799            4211     151.852E-03     150.972E-03
            3799            4212     143.454E-03     147.540E-03
            3800             497     149.838E-03     150.757E-03
            3800             498     144.671E-03     145.057E-03
            3800            4212     143.454E-03     147.540E-03
            3800            4213     137.666E-03     141.421E-03
            3801             498     144.671E-03     145.057E-03
            3801             499     139.512E-03     138.760E-03
            3801            4213     137.666E-03     141.421E-03
            3801            4214     133.908E-03     134.092E-03
            3802             499     139.512E-03     138.760E-03
            3802             500     132.751E-03     134.590E-03
            3802            4214     133.908E-03     134.092E-03
            3802            4215     125.329E-03     132.792E-03
            3803             500     132.751E-03     134.590E-03
            3803             501     129.576E-03     126.630E-03
            3803            4215     125.329E-03     132.792E-03
            3803            4216     129.752E-03     125.868E-03
            3804             501     129.576E-03     126.630E-03
            3804             502     124.303E-03     120.324E-03
            3804            4216     129.752E-03     125.868E-03
            3804            4217     127.505E-03     124.270E-03
            3805             502     124.303E-03     120.324E-03
            3805             503     125.311E-03     134.553E-03
            3805            4217     127.505E-03     124.270E-03
            3805            4218     120.010E-03     142.982E-03
            3806             503     125.311E-03     134.553E-03
            3806             504     137.169E-03     135.219E-03
            3806            4218     120.010E-03     142.982E-03
            3806            4219     139.209E-03     136.696E-03
            3807             504     137.169E-03     135.219E-03
            3807             505     129.532E-03     126.152E-03
            3807            4219     139.209E-03     136.696E-03
            3807            4220     132.437E-03     126.824E-03
            3808             505     129.532E-03     126.152E-03
            3808             506     118.539E-03     121.693E-03
            3808            4220     132.437E-03     126.824E-03
            3808            4221     113.769E-03     122.492E-03
            3809             506     118.539E-03     121.693E-03
            3809             507     114.202E-03     113.082E-03
            3809            4221     113.769E-03     122.492E-03
            3809            4222     111.191E-03     110.363E-03
            3810             507     114.202E-03     113.082E-03
            3810             508     107.428E-03     108.182E-03
            3810            4222     111.191E-03     110.363E-03
            3810            4223     102.870E-03     105.831E-03
            3811             508     107.428E-03     108.182E-03
            3811             509     101.754E-03     101.918E-03
            3811            4223     102.870E-03     105.831E-03
            3811            4224     96.5201E-03     99.1147E-03
            3812             509     101.754E-03     101.918E-03
            3812             510     95.8438E-03     95.4293E-03
            3812            4224     96.5201E-03     99.1147E-03
            3812            4225     91.5001E-03     91.8376E-03
            3813             510     95.8438E-03     95.4293E-03
            3813             511     89.0544E-03     89.9551E-03
            3813            4225     91.5001E-03     91.8376E-03
            3813            4226     83.5690E-03     88.1097E-03
            3814             511     89.0544E-03     89.9551E-03
            3814             512     83.8976E-03     82.1020E-03
            3814            4226     83.5690E-03     88.1097E-03
            3814            4227     83.3609E-03     81.2463E-03
            3815             512     83.8976E-03     82.1020E-03
            3815             513     77.6457E-03     74.6593E-03
            3815            4227     83.3609E-03     81.2463E-03
            3815            4228     79.9920E-03     77.7820E-03
            3816             513     77.6457E-03     74.6593E-03
            3816             514     80.9098E-03     86.9413E-03
            3816            4228     79.9920E-03     77.7820E-03
            3816            4229     77.3758E-03     92.2416E-03
            3817             514     80.9098E-03     86.9413E-03
            3817             515     91.0887E-03     90.3210E-03
            3817            4229     77.3758E-03     92.2416E-03
            3817            4230     91.8027E-03     90.4054E-03
            3818             515     91.0887E-03     90.3210E-03
            3818             516     83.0902E-03     80.8243E-03
            3818            4230     91.8027E-03     90.4054E-03
            3818            4231     85.1701E-03     81.2236E-03
            3819             516     83.0902E-03     80.8243E-03
            3819             517     72.6882E-03     74.9726E-03
            3819            4231     85.1701E-03     81.2236E-03
            3819            4232     69.8064E-03     75.6116E-03
            3820             517     72.6882E-03     74.9726E-03
            3820             518     67.2298E-03     66.4028E-03
            3820            4232     69.8064E-03     75.6116E-03
            3820            4233     65.3615E-03     64.6382E-03
            3821             518     67.2298E-03     66.4028E-03
            3821             519     59.9898E-03     60.5208E-03
            3821            4233     65.3615E-03     64.6382E-03
            3821            4234     57.1284E-03     58.9132E-03
            3822             519     59.9898E-03     60.5208E-03
            3822             520     53.5770E-03     53.3588E-03
            3822            4234     57.1284E-03     58.9132E-03
            3822            4235     50.3918E-03     51.1314E-03
            3823             520     53.5770E-03     53.3588E-03
            3823             521     46.4737E-03     46.6146E-03
            3823            4235     50.3918E-03     51.1314E-03
            3823            4236     43.2732E-03     44.7215E-03
            3824             521     46.4737E-03     46.6146E-03
            3824             522     39.3140E-03     38.6814E-03
            3824            4236     43.2732E-03     44.7215E-03
            3824            4237     38.1354E-03     37.9233E-03
            3825             522     39.3140E-03     38.6814E-03
            3825             523     31.7453E-03     29.9465E-03
            3825            4237     38.1354E-03     37.9233E-03
            3825            4238     33.4356E-03     32.3527E-03
            3826             523     31.7453E-03     29.9465E-03
            3826             524     36.9518E-03     39.8547E-03
            3826            4238     33.4356E-03     32.3527E-03
            3826            4239     35.3175E-03     42.1736E-03
            3827             524     36.9518E-03     39.8547E-03
            3827             525     45.2561E-03     45.6314E-03
            3827            4239     35.3175E-03     42.1736E-03
            3827            4240     44.6799E-03     44.4909E-03
            3828             525     45.2561E-03     45.6314E-03
            3828             526     36.8023E-03     35.6588E-03
            3828            4240     44.6799E-03     44.4909E-03
            3828            4241     38.0952E-03     35.7381E-03
            3829             526     36.8023E-03     35.6588E-03
            3829             527     27.1390E-03     28.3949E-03
            3829            4241     38.0952E-03     35.7381E-03
            3829            4242     25.8976E-03     28.8087E-03
            3830             527     27.1390E-03     28.3949E-03
            3830             528     20.6681E-03     20.1581E-03
            3830            4242     25.8976E-03     28.8087E-03
            3830            4243     19.8517E-03     19.3207E-03
            3831             528     20.6681E-03     20.1581E-03
            3831             529     13.4798E-03     13.6487E-03
            3831            4243     19.8517E-03     19.3207E-03
            3831            4244     12.7947E-03     12.6455E-03
            3832             529     13.4798E-03     13.6487E-03
            3832             530     9.52862E-03     8.59792E-03
            3832            4244     12.7947E-03     12.6455E-03
            3832            4245     9.66286E-03     8.68674E-03
            3833             530     9.52862E-03     8.59792E-03
            3833             531     9.20680E-03     11.4549E-03
            3833            4245     9.66286E-03     8.68674E-03
            3833            4246     9.84162E-03     11.5778E-03
            3834              23     5.40875E-03     8.18529E-03
            3834             466     5.37090E-03     7.55025E-03
            3834             531     9.20680E-03     11.4549E-03
            3834            4246     9.84162E-03     11.5778E-03
            3947              21     143.854E-03     147.826E-03
            3947             460     153.452E-03     157.471E-03
            3947             748     150.183E-03     152.541E-03
            3947            4331     156.121E-03     159.027E-03
            3948               6     160.473E-03     167.009E-03
            3948             172     159.108E-03     161.169E-03
            3948             460     153.452E-03     157.471E-03
            3948            4331     156.121E-03     159.027E-03
            3949             747     156.981E-03     158.566E-03
            3949             748     150.183E-03     152.541E-03
            3949            4331     156.121E-03     159.027E-03
            3949            4332     163.107E-03     166.893E-03
            3950             171     166.840E-03     175.790E-03
            3950             172     159.108E-03     161.169E-03
            3950            4331     156.121E-03     159.027E-03
            3950            4332     163.107E-03     166.893E-03
            3951             746     167.341E-03     171.793E-03
            3951             747     156.981E-03     158.566E-03
            3951            4332     163.107E-03     166.893E-03
            3951            4333     174.981E-03     176.875E-03
            3952             170     182.105E-03     177.073E-03
            3952             171     166.840E-03     175.790E-03
            3952            4332     163.107E-03     166.893E-03
            3952            4333     174.981E-03     176.875E-03
            3953             745     175.072E-03     178.572E-03
            3953             746     167.341E-03     171.793E-03
            3953            4333     174.981E-03     176.875E-03
            3953            4334     182.879E-03     186.046E-03
            3954             169     185.590E-03     186.541E-03
            3954             170     182.105E-03     177.073E-03
            3954            4333     174.981E-03     176.875E-03
            3954            4334     182.879E-03     186.046E-03
            3955             744     177.225E-03     179.392E-03
            3955             745     175.072E-03     178.572E-03
            3955            4334     182.879E-03     186.046E-03
            3955            4335     187.741E-03     189.454E-03
            3956             168     194.606E-03     191.988E-03
            3956             169     185.590E-03     186.541E-03
            3956            4334     182.879E-03     186.046E-03
            3956            4335     187.741E-03     189.454E-03
            3957             743     172.790E-03     174.077E-03
            3957             744     177.225E-03     179.392E-03
            3957            4335     187.741E-03     189.454E-03
            3957            4336     187.100E-03     188.080E-03
            3958             167     203.411E-03     198.531E-03
            3958             168     194.606E-03     191.988E-03
            3958            4335     187.741E-03     189.454E-03
            3958            4336     187.100E-03     188.080E-03
            3959              31     169.045E-03     171.262E-03
            3959             721     185.808E-03     192.371E-03
            3959             743     172.790E-03     174.077E-03
            3959            4336     187.100E-03     188.080E-03
            3960               8     201.785E-03     220.921E-03
            3960             167     203.411E-03     198.531E-03
            3960             721     185.808E-03     192.371E-03
            3960            4336     187.100E-03     188.080E-03
            3961              12     24.5732E-03     24.3805E-03
            3961             196     24.3389E-03     24.1336E-03
            3961             245     48.0300E-03     47.8173E-03
            3961            4337     47.7273E-03     47.5080E-03
            3962             244     48.4380E-03     48.0966E-03
            3962             245     48.0300E-03     47.8173E-03
            3962            4337     47.7273E-03     47.5080E-03
            3962            4338     48.2352E-03     47.9415E-03
            3963             243     48.2754E-03     47.6213E-03
            3963             244     48.4380E-03     48.0966E-03
            3963            4338     48.2352E-03     47.9415E-03
            3963            4339     47.9235E-03     47.3582E-03
            3964             242     47.7882E-03     47.2133E-03
            3964             243     48.2754E-03     47.6213E-03
            3964            4339     47.9235E-03     47.3582E-03
            3964            4340     47.1272E-03     46.6698E-03
            3965             241     48.0593E-03     47.2499E-03
            3965             242     47.7882E-03     47.2133E-03
            3965            4340     47.1272E-03     46.6698E-03
            3965            4341     47.2052E-03     46.6076E-03
            3966             240     48.3069E-03     47.3108E-03
            3966             241     48.0593E-03     47.2499E-03
            3966            4341     47.2052E-03     46.6076E-03
            3966            4342     47.5646E-03     46.8712E-03
            3967             239     48.3143E-03     47.4422E-03
            3967             240     48.3069E-03     47.3108E-03
            3967            4342     47.5646E-03     46.8712E-03
            3967            4343     47.6781E-03     47.2429E-03
            3968             238     48.3509E-03     47.5208E-03
            3968             239     48.3143E-03     47.4422E-03
            3968            4343     47.6781E-03     47.2429E-03
            3968            4344     47.9773E-03     47.7011E-03
            3969             237     48.2686E-03     47.8649E-03
            3969             238     48.3509E-03     47.5208E-03
            3969            4344     47.9773E-03     47.7011E-03
            3969            4345     48.2510E-03     48.2922E-03
            3970             236     48.2732E-03     48.3945E-03
            3970             237     48.2686E-03     47.8649E-03
            3970            4345     48.2510E-03     48.2922E-03
            3970            4346     48.7673E-03     48.8933E-03
            3971             235     48.3607E-03     48.6844E-03
            3971             236     48.2732E-03     48.3945E-03
            3971            4346     48.7673E-03     48.8933E-03
            3971            4347     49.3372E-03     49.1247E-03
            3972             234     47.9037E-03     49.2231E-03
            3972             235     48.3607E-03     48.6844E-03
            3972            4347     49.3372E-03     49.1247E-03
            3972            4348     49.2501E-03     50.1149E-03
            3973             233     49.0435E-03     49.5301E-03
            3973             234     47.9037E-03     49.2231E-03
            3973            4348     49.2501E-03     50.1149E-03
            3973            4349     50.8490E-03     50.5903E-03
            3974             232     49.2711E-03     47.9732E-03
            3974             233     49.0435E-03     49.5301E-03
            3974            4349     50.8490E-03     50.5903E-03
            3974            4350     50.7358E-03     49.0749E-03
            3975             231     47.3163E-03     46.9594E-03
            3975             232     49.2711E-03     47.9732E-03
            3975            4350     50.7358E-03     49.0749E-03
            3975            4351     47.9061E-03     48.1123E-03
            3976             230     46.8849E-03     46.3829E-03
            3976             231     47.3163E-03     46.9594E-03
            3976            4351     47.9061E-03     48.1123E-03
            3976            4352     47.6448E-03     47.2414E-03
            3977             229     47.5976E-03     45.8534E-03
            3977             230     46.8849E-03     46.3829E-03
            3977            4352     47.6448E-03     47.2414E-03
            3977            4353     48.7040E-03     47.3804E-03
            3978             228     48.0297E-03     46.4649E-03
            3978             229     47.5976E-03     45.8534E-03
            3978            4353     48.7040E-03     47.3804E-03
            3978            4354     49.4345E-03     48.7667E-03
            3979             227     47.8726E-03     46.9893E-03
            3979             228     48.0297E-03     46.4649E-03
            3979            4354     49.4345E-03     48.7667E-03
            3979            4355     49.9463E-03     49.7451E-03
            3980             226     47.8465E-03     47.7835E-03
            3980             227     47.8726E-03     46.9893E-03
            3980            4355     49.9463E-03     49.7451E-03
            3980            4356     50.8075E-03     50.8234E-03
            3981             225     47.7277E-03     48.2646E-03
            3981             226     47.8465E-03     47.7835E-03
            3981            4356     50.8075E-03     50.8234E-03
            3981            4357     51.4818E-03     51.2851E-03
            3982             224     46.7472E-03     48.9900E-03
            3982             225     47.7277E-03     48.2646E-03
            3982            4357     51.4818E-03     51.2851E-03
            3982            4358     50.9817E-03     52.7566E-03
            3983             223     48.3079E-03     49.2874E-03
            3983             224     46.7472E-03     48.9900E-03
            3983            4358     50.9817E-03     52.7566E-03
            3983            4359     53.1293E-03     52.9611E-03
            3984             222     48.4922E-03     46.9871E-03
            3984             223     48.3079E-03     49.2874E-03
            3984            4359     53.1293E-03     52.9611E-03
            3984            4360     52.6149E-03     50.4505E-03
            3985             221     46.2955E-03     46.5398E-03
            3985             222     48.4922E-03     46.9871E-03
            3985            4360     52.6149E-03     50.4505E-03
            3985            4361     48.9616E-03     50.1808E-03
            3986             220     46.7762E-03     46.3156E-03
            3986             221     46.2955E-03     46.5398E-03
            3986            4361     48.9616E-03     50.1808E-03
            3986            4362     49.9317E-03     49.4240E-03
            3987             219     47.9724E-03     45.4341E-03
            3987             220     46.7762E-03     46.3156E-03
            3987            4362     49.9317E-03     49.4240E-03
            3987            4363     51.7683E-03     49.6392E-03
            3988             218     48.6095E-03     46.5782E-03
            3988             219     47.9724E-03     45.4341E-03
            3988            4363     51.7683E-03     49.6392E-03
            3988            4364     52.6307E-03     51.9384E-03
            3989             217     48.4835E-03     47.4282E-03
            3989             218     48.6095E-03     46.5782E-03
            3989            4364     52.6307E-03     51.9384E-03
            3989            4365     53.4266E-03     53.0614E-03
            3990             216     48.4582E-03     48.5480E-03
            3990             217     48.4835E-03     47.4282E-03
            3990            4365     53.4266E-03     53.0614E-03
            3990            4366     54.4804E-03     54.4174E-03
            3991             215     48.2431E-03     49.1325E-03
            3991             216     48.4582E-03     48.5480E-03
            3991            4366     54.4804E-03     54.4174E-03
            3991            4367     55.0537E-03     54.9008E-03
            3992             214     46.7777E-03     49.9560E-03
            3992             215     48.2431E-03     49.1325E-03
            3992            4367     55.0537E-03     54.9008E-03
            3992            4368     54.0277E-03     56.6278E-03
            3993             213     48.7999E-03     50.0831E-03
            3993             214     46.7777E-03     49.9560E-03
            3993            4368     54.0277E-03     56.6278E-03
            3993            4369     56.5830E-03     56.3599E-03
            3994             212     48.8378E-03     47.0473E-03
            3994             213     48.7999E-03     50.0831E-03
            3994            4369     56.5830E-03     56.3599E-03
            3994            4370     55.5400E-03     52.8497E-03
            3995               9     41.3144E-03     41.0548E-03
            3995             212     48.8378E-03     47.0473E-03
            3995             749     47.9738E-03     48.4071E-03
            3995            4370     55.5400E-03     52.8497E-03
            3996             196     24.3389E-03     24.1336E-03
            3996             197     22.6143E-03     22.4736E-03
            3996            4337     47.7273E-03     47.5080E-03
            3996            4371     44.2686E-03     44.1003E-03
            3997            4337     47.7273E-03     47.5080E-03
            3997            4338     48.2352E-03     47.9415E-03
            3997            4371     44.2686E-03     44.1003E-03
            3997            4372     44.9979E-03     44.4809E-03
            3998            4338     48.2352E-03     47.9415E-03
            3998            4339     47.9235E-03     47.3582E-03
            3998            4372     44.9979E-03     44.4809E-03
            3998            4373     44.9187E-03     44.4722E-03
            3999            4339     47.9235E-03     47.3582E-03
            3999            4340     47.1272E-03     46.6698E-03
            3999            4373     44.9187E-03     44.4722E-03
            3999            4374     43.4702E-03     43.5687E-03
            4000            4340     47.1272E-03     46.6698E-03
            4000            4341     47.2052E-03     46.6076E-03
            4000            4374     43.4702E-03     43.5687E-03
            4000            4375     42.8361E-03     43.0302E-03
            4001            4341     47.2052E-03     46.6076E-03
            4001            4342     47.5646E-03     46.8712E-03
            4001            4375     42.8361E-03     43.0302E-03
            4001            4376     43.4749E-03     44.0347E-03
            4002            4342     47.5646E-03     46.8712E-03
            4002            4343     47.6781E-03     47.2429E-03
            4002            4376     43.4749E-03     44.0347E-03
            4002            4377     44.6142E-03     45.3581E-03
            4003            4343     47.6781E-03     47.2429E-03
            4003            4344     47.9773E-03     47.7011E-03
            4003            4377     44.6142E-03     45.3581E-03
            4003            4378     46.0408E-03     46.5855E-03
            4004            4344     47.9773E-03     47.7011E-03
            4004            4345     48.2510E-03     48.2922E-03
            4004            4378     46.0408E-03     46.5855E-03
            4004            4379     47.5507E-03     47.9227E-03
            4005            4345     48.2510E-03     48.2922E-03
            4005            4346     48.7673E-03     48.8933E-03
            4005            4379     47.5507E-03     47.9227E-03
            4005            4380     49.4938E-03     49.2873E-03
            4006            4346     48.7673E-03     48.8933E-03
            4006            4347     49.3372E-03     49.1247E-03
            4006            4380     49.4938E-03     49.2873E-03
            4006            4381     51.5090E-03     50.3674E-03
            4007            4347     49.3372E-03     49.1247E-03
            4007            4348     49.2501E-03     50.1149E-03
            4007            4381     51.5090E-03     50.3674E-03
            4007            4382     52.5683E-03     53.2957E-03
            4008            4348     49.2501E-03     50.1149E-03
            4008            4349     50.8490E-03     50.5903E-03
            4008            4382     52.5683E-03     53.2957E-03
            4008            4383     57.4204E-03     54.5355E-03
            4009            4349     50.8490E-03     50.5903E-03
            4009            4350     50.7358E-03     49.0749E-03
            4009            4383     57.4204E-03     54.5355E-03
            4009            4384     57.5090E-03     55.1043E-03
            4010            4350     50.7358E-03     49.0749E-03
            4010            4351     47.9061E-03     48.1123E-03
            4010            4384     57.5090E-03     55.1043E-03
            4010            4385     51.0732E-03     54.4880E-03
            4011            4351     47.9061E-03     48.1123E-03
            4011            4352     47.6448E-03     47.2414E-03
            4011            4385     51.0732E-03     54.4880E-03
            4011            4386     51.8888E-03     51.9330E-03
            4012            4352     47.6448E-03     47.2414E-03
            4012            4353     48.7040E-03     47.3804E-03
            4012            4386     51.8888E-03     51.9330E-03
            4012            4387     54.6436E-03     54.4293E-03
            4013            4353     48.7040E-03     47.3804E-03
            4013            4354     49.4345E-03     48.7667E-03
            4013            4387     54.6436E-03     54.4293E-03
            4013            4388     56.1225E-03     57.5248E-03
            4014            4354     49.4345E-03     48.7667E-03
            4014            4355     49.9463E-03     49.7451E-03
            4014            4388     56.1225E-03     57.5248E-03
            4014            4389     58.7449E-03     59.1450E-03
            4015            4355     49.9463E-03     49.7451E-03
            4015            4356     50.8075E-03     50.8234E-03
            4015            4389     58.7449E-03     59.1450E-03
            4015            4390     61.6549E-03     61.2210E-03
            4016            4356     50.8075E-03     50.8234E-03
            4016            4357     51.4818E-03     51.2851E-03
            4016            4390     61.6549E-03     61.2210E-03
            4016            4391     64.3758E-03     62.6381E-03
            4017            4357     51.4818E-03     51.2851E-03
            4017            4358     50.9817E-03     52.7566E-03
            4017            4391     64.3758E-03     62.6381E-03
            4017            4392     65.3702E-03     66.9328E-03
            4018            4358     50.9817E-03     52.7566E-03
            4018            4359     53.1293E-03     52.9611E-03
            4018            4392     65.3702E-03     66.9328E-03
            4018            4393     72.1607E-03     67.7841E-03
            4019            4359     53.1293E-03     52.9611E-03
            4019            4360     52.6149E-03     50.4505E-03
            4019            4393     72.1607E-03     67.7841E-03
            4019            4394     71.0897E-03     67.5522E-03
            4020            4360     52.6149E-03     50.4505E-03
            4020            4361     48.9616E-03     50.1808E-03
            4020            4394     71.0897E-03     67.5522E-03
            4020            4395     61.4896E-03     68.3363E-03
            4021            4361     48.9616E-03     50.1808E-03
            4021            4362     49.9317E-03     49.4240E-03
            4021            4395     61.4896E-03     68.3363E-03
            4021            4396     65.7501E-03     65.1390E-03
            4022            4362     49.9317E-03     49.4240E-03
            4022            4363     51.7683E-03     49.6392E-03
            4022            4396     65.7501E-03     65.1390E-03
            4022            4397     70.1241E-03     68.4828E-03
            4023            4363     51.7683E-03     49.6392E-03
            4023            4364     52.6307E-03     51.9384E-03
            4023            4397     70.1241E-03     68.4828E-03
            4023            4398     70.4636E-03     72.7328E-03
            4024            4364     52.6307E-03     51.9384E-03
            4024            4365     53.4266E-03     53.0614E-03
            4024            4398     70.4636E-03     72.7328E-03
            4024            4399     73.7745E-03     73.7278E-03
            4025            4365     53.4266E-03     53.0614E-03
            4025            4366     54.4804E-03     54.4174E-03
            4025            4399     73.7745E-03     73.7278E-03
            4025            4400     76.9831E-03     76.0608E-03
            4026            4366     54.4804E-03     54.4174E-03
            4026            4367     55.0537E-03     54.9008E-03
            4026            4400     76.9831E-03     76.0608E-03
            4026            4401     79.7778E-03     77.4191E-03
            4027            4367     55.0537E-03     54.9008E-03
            4027            4368     54.0277E-03     56.6278E-03
            4027            4401     79.7778E-03     77.4191E-03
            4027            4402     80.2898E-03     82.6531E-03
            4028            4368     54.0277E-03     56.6278E-03
            4028            4369     56.5830E-03     56.3599E-03
            4028            4402     80.2898E-03     82.6531E-03
            4028            4403     88.5040E-03     82.7660E-03
            4029            4369     56.5830E-03     56.3599E-03
            4029            4370     55.5400E-03     52.8497E-03
            4029            4403     88.5040E-03     82.7660E-03
            4029            4404     86.0844E-03     81.6325E-03
            4030             749     47.9738E-03     48.4071E-03
            4030             750     74.8954E-03     80.5331E-03
            4030            4370     55.5400E-03     52.8497E-03
            4030            4404     86.0844E-03     81.6325E-03
            4031             197     22.6143E-03     22.4736E-03
            4031             198     19.1937E-03     19.1481E-03
            4031            4371     44.2686E-03     44.1003E-03
            4031            4405     37.5348E-03     37.9269E-03
            4032            4371     44.2686E-03     44.1003E-03
            4032            4372     44.9979E-03     44.4809E-03
            4032            4405     37.5348E-03     37.9269E-03
            4032            4406     38.9134E-03     38.5607E-03
            4033            4372     44.9979E-03     44.4809E-03
            4033            4373     44.9187E-03     44.4722E-03
            4033            4406     38.9134E-03     38.5607E-03
            4033            4407     39.2504E-03     38.9523E-03
            4034            4373     44.9187E-03     44.4722E-03
            4034            4374     43.4702E-03     43.5687E-03
            4034            4407     39.2504E-03     38.9523E-03
            4034            4408     37.2203E-03     38.4675E-03
            4035            4374     43.4702E-03     43.5687E-03
            4035            4375     42.8361E-03     43.0302E-03
            4035            4408     37.2203E-03     38.4675E-03
            4035            4409     36.6329E-03     38.1842E-03
            4036            4375     42.8361E-03     43.0302E-03
            4036            4376     43.4749E-03     44.0347E-03
            4036            4409     36.6329E-03     38.1842E-03
            4036            4410     38.1135E-03     39.9381E-03
            4037            4376     43.4749E-03     44.0347E-03
            4037            4377     44.6142E-03     45.3581E-03
            4037            4410     38.1135E-03     39.9381E-03
            4037            4411     40.2648E-03     41.5318E-03
            4038            4377     44.6142E-03     45.3581E-03
            4038            4378     46.0408E-03     46.5855E-03
            4038            4411     40.2648E-03     41.5318E-03
            4038            4412     42.9192E-03     43.1914E-03
            4039            4378     46.0408E-03     46.5855E-03
            4039            4379     47.5507E-03     47.9227E-03
            4039            4412     42.9192E-03     43.1914E-03
            4039            4413     45.4991E-03     45.9083E-03
            4040            4379     47.5507E-03     47.9227E-03
            4040            4380     49.4938E-03     49.2873E-03
            4040            4413     45.4991E-03     45.9083E-03
            4040            4414     49.2370E-03     48.9953E-03
            4041            4380     49.4938E-03     49.2873E-03
            4041            4381     51.5090E-03     50.3674E-03
            4041            4414     49.2370E-03     48.9953E-03
            4041            4415     53.1160E-03     51.9257E-03
            4042            4381     51.5090E-03     50.3674E-03
            4042            4382     52.5683E-03     53.2957E-03
            4042            4415     53.1160E-03     51.9257E-03
            4042            4416     55.4455E-03     58.2936E-03
            4043            4382     52.5683E-03     53.2957E-03
            4043            4383     57.4204E-03     54.5355E-03
            4043            4416     55.4455E-03     58.2936E-03
            4043            4417     65.1369E-03     60.0572E-03
            4044            4383     57.4204E-03     54.5355E-03
            4044            4384     57.5090E-03     55.1043E-03
            4044            4417     65.1369E-03     60.0572E-03
            4044            4418     66.2608E-03     63.9641E-03
            4045            4384     57.5090E-03     55.1043E-03
            4045            4385     51.0732E-03     54.4880E-03
            4045            4418     66.2608E-03     63.9641E-03
            4045            4419     56.5228E-03     66.7826E-03
            4046            4385     51.0732E-03     54.4880E-03
            4046            4386     51.8888E-03     51.9330E-03
            4046            4419     56.5228E-03     66.7826E-03
            4046            4420     60.3674E-03     61.3396E-03
            4047            4386     51.8888E-03     51.9330E-03
            4047            4387     54.6436E-03     54.4293E-03
            4047            4420     60.3674E-03     61.3396E-03
            4047            4421     64.4032E-03     64.1136E-03
            4048            4387     54.6436E-03     54.4293E-03
            4048            4388     56.1225E-03     57.5248E-03
            4048            4421     64.4032E-03     64.1136E-03
            4048            4422     64.6477E-03     67.4106E-03
            4049            4388     56.1225E-03     57.5248E-03
            4049            4389     58.7449E-03     59.1450E-03
            4049            4422     64.6477E-03     67.4106E-03
            4049            4423     68.4125E-03     68.8537E-03
            4050            4389     58.7449E-03     59.1450E-03
            4050            4390     61.6549E-03     61.2210E-03
            4050            4423     68.4125E-03     68.8537E-03
            4050            4424     72.7574E-03     72.6094E-03
            4051            4390     61.6549E-03     61.2210E-03
            4051            4391     64.3758E-03     62.6381E-03
            4051            4424     72.7574E-03     72.6094E-03
            4051            4425     77.1974E-03     75.4596E-03
            4052            4391     64.3758E-03     62.6381E-03
            4052            4392     65.3702E-03     66.9328E-03
            4052            4425     77.1974E-03     75.4596E-03
            4052            4426     79.5788E-03     83.8423E-03
            4053            4392     65.3702E-03     66.9328E-03
            4053            4393     72.1607E-03     67.7841E-03
            4053            4426     79.5788E-03     83.8423E-03
            4053            4427     93.1475E-03     85.2236E-03
            4054            4393     72.1607E-03     67.7841E-03
            4054            4394     71.0897E-03     67.5522E-03
            4054            4427     93.1475E-03     85.2236E-03
            4054            4428     93.2779E-03     89.6887E-03
            4055            4394     71.0897E-03     67.5522E-03
            4055            4395     61.4896E-03     68.3363E-03
            4055            4428     93.2779E-03     89.6887E-03
            4055            4429     78.7973E-03     96.4146E-03
            4056            4395     61.4896E-03     68.3363E-03
            4056            4396     65.7501E-03     65.1390E-03
            4056            4429     78.7973E-03     96.4146E-03
            4056            4430     88.3520E-03     88.5162E-03
            4057            4396     65.7501E-03     65.1390E-03
            4057            4397     70.1241E-03     68.4828E-03
            4057            4430     88.3520E-03     88.5162E-03
            4057            4431     93.7099E-03     90.8430E-03
            4058            4397     70.1241E-03     68.4828E-03
            4058            4398     70.4636E-03     72.7328E-03
            4058            4431     93.7099E-03     90.8430E-03
            4058            4432     90.3063E-03     94.8416E-03
            4059            4398     70.4636E-03     72.7328E-03
            4059            4399     73.7745E-03     73.7278E-03
            4059            4432     90.3063E-03     94.8416E-03
            4059            4433     94.3862E-03     94.4738E-03
            4060            4399     73.7745E-03     73.7278E-03
            4060            4400     76.9831E-03     76.0608E-03
            4060            4433     94.3862E-03     94.4738E-03
            4060            4434     98.6427E-03     98.4143E-03
            4061            4400     76.9831E-03     76.0608E-03
            4061            4401     79.7778E-03     77.4191E-03
            4061            4434     98.6427E-03     98.4143E-03
            4061            4435     103.059E-03     100.930E-03
            4062            4401     79.7778E-03     77.4191E-03
            4062            4402     80.2898E-03     82.6531E-03
            4062            4435     103.059E-03     100.930E-03
            4062            4436     105.061E-03     110.863E-03
            4063            4402     80.2898E-03     82.6531E-03
            4063            4403     88.5040E-03     82.7660E-03
            4063            4436     105.061E-03     110.863E-03
            4063            4437     121.817E-03     111.601E-03
            4064            4403     88.5040E-03     82.7660E-03
            4064            4404     86.0844E-03     81.6325E-03
            4064            4437     121.817E-03     111.601E-03
            4064            4438     120.745E-03     116.301E-03
            4065             750     74.8954E-03     80.5331E-03
            4065             751     104.366E-03     118.118E-03
            4065            4404     86.0844E-03     81.6325E-03
            4065            4438     120.745E-03     116.301E-03
            4066             198     19.1937E-03     19.1481E-03
            4066             199     14.6158E-03     14.5971E-03
            4066            4405     37.5348E-03     37.9269E-03
            4066            4439     28.1862E-03     29.0327E-03
            4067            4405     37.5348E-03     37.9269E-03
            4067            4406     38.9134E-03     38.5607E-03
            4067            4439     28.1862E-03     29.0327E-03
            4067            4440     30.6380E-03     29.6393E-03
            4068            4406     38.9134E-03     38.5607E-03
            4068            4407     39.2504E-03     38.9523E-03
            4068            4440     30.6380E-03     29.6393E-03
            4068            4441     31.2642E-03     31.2544E-03
            4069            4407     39.2504E-03     38.9523E-03
            4069            4408     37.2203E-03     38.4675E-03
            4069            4441     31.2642E-03     31.2544E-03
            4069            4442     30.3790E-03     32.8712E-03
            4070            4408     37.2203E-03     38.4675E-03
            4070            4409     36.6329E-03     38.1842E-03
            4070            4442     30.3790E-03     32.8712E-03
            4070            4443     31.7184E-03     32.8396E-03
            4071            4409     36.6329E-03     38.1842E-03
            4071            4410     38.1135E-03     39.9381E-03
            4071            4443     31.7184E-03     32.8396E-03
            4071            4444     32.5442E-03     33.8102E-03
            4072            4410     38.1135E-03     39.9381E-03
            4072            4411     40.2648E-03     41.5318E-03
            4072            4444     32.5442E-03     33.8102E-03
            4072            4445     34.6981E-03     35.3899E-03
            4073            4411     40.2648E-03     41.5318E-03
            4073            4412     42.9192E-03     43.1914E-03
            4073            4445     34.6981E-03     35.3899E-03
            4073            4446     38.4617E-03     38.7484E-03
            4074            4412     42.9192E-03     43.1914E-03
            4074            4413     45.4991E-03     45.9083E-03
            4074            4446     38.4617E-03     38.7484E-03
            4074            4447     42.4225E-03     43.8138E-03
            4075            4413     45.4991E-03     45.9083E-03
            4075            4414     49.2370E-03     48.9953E-03
            4075            4447     42.4225E-03     43.8138E-03
            4075            4448     48.2901E-03     49.4802E-03
            4076            4414     49.2370E-03     48.9953E-03
            4076            4415     53.1160E-03     51.9257E-03
            4076            4448     48.2901E-03     49.4802E-03
            4076            4449     54.7844E-03     54.5725E-03
            4077            4415     53.1160E-03     51.9257E-03
            4077            4416     55.4455E-03     58.2936E-03
            4077            4449     54.7844E-03     54.5725E-03
            4077            4450     58.3848E-03     64.6833E-03
            4078            4416     55.4455E-03     58.2936E-03
            4078            4417     65.1369E-03     60.0572E-03
            4078            4450     58.3848E-03     64.6833E-03
            4078            4451     72.6868E-03     68.0780E-03
            4079            4417     65.1369E-03     60.0572E-03
            4079            4418     66.2608E-03     63.9641E-03
            4079            4451     72.6868E-03     68.0780E-03
            4079            4452     74.8363E-03     74.2149E-03
            4080            4418     66.2608E-03     63.9641E-03
            4080            4419     56.5228E-03     66.7826E-03
            4080            4452     74.8363E-03     74.2149E-03
            4080            4453     63.3595E-03     79.8074E-03
            4081            4419     56.5228E-03     66.7826E-03
            4081            4420     60.3674E-03     61.3396E-03
            4081            4453     63.3595E-03     79.8074E-03
            4081            4454     70.3251E-03     71.0488E-03
            4082            4420     60.3674E-03     61.3396E-03
            4082            4421     64.4032E-03     64.1136E-03
            4082            4454     70.3251E-03     71.0488E-03
            4082            4455     72.4443E-03     72.0516E-03
            4083            4421     64.4032E-03     64.1136E-03
            4083            4422     64.6477E-03     67.4106E-03
            4083            4455     72.4443E-03     72.0516E-03
            4083            4456     71.0133E-03     75.5020E-03
            4084            4422     64.6477E-03     67.4106E-03
            4084            4423     68.4125E-03     68.8537E-03
            4084            4456     71.0133E-03     75.5020E-03
            4084            4457     76.1631E-03     78.0718E-03
            4085            4423     68.4125E-03     68.8537E-03
            4085            4424     72.7574E-03     72.6094E-03
            4085            4457     76.1631E-03     78.0718E-03
            4085            4458     81.4935E-03     84.5650E-03
            4086            4424     72.7574E-03     72.6094E-03
            4086            4425     77.1974E-03     75.4596E-03
            4086            4458     81.4935E-03     84.5650E-03
            4086            4459     88.3104E-03     88.7647E-03
            4087            4425     77.1974E-03     75.4596E-03
            4087            4426     79.5788E-03     83.8423E-03
            4087            4459     88.3104E-03     88.7647E-03
            4087            4460     91.1390E-03     100.919E-03
            4088            4426     79.5788E-03     83.8423E-03
            4088            4427     93.1475E-03     85.2236E-03
            4088            4460     91.1390E-03     100.919E-03
            4088            4461     110.276E-03     103.673E-03
            4089            4427     93.1475E-03     85.2236E-03
            4089            4428     93.2779E-03     89.6887E-03
            4089            4461     110.276E-03     103.673E-03
            4089            4462     112.343E-03     111.310E-03
            4090            4428     93.2779E-03     89.6887E-03
            4090            4429     78.7973E-03     96.4146E-03
            4090            4462     112.343E-03     111.310E-03
            4090            4463     95.6177E-03     122.814E-03
            4091            4429     78.7973E-03     96.4146E-03
            4091            4430     88.3520E-03     88.5162E-03
            4091            4463     95.6177E-03     122.814E-03
            4091            4464     109.612E-03     110.061E-03
            4092            4430     88.3520E-03     88.5162E-03
            4092            4431     93.7099E-03     90.8430E-03
            4092            4464     109.612E-03     110.061E-03
            4092            4465     111.847E-03     109.386E-03
            4093            4431     93.7099E-03     90.8430E-03
            4093            4432     90.3063E-03     94.8416E-03
            4093            4465     111.847E-03     109.386E-03
            4093            4466     105.108E-03     113.253E-03
            4094            4432     90.3063E-03     94.8416E-03
            4094            4433     94.3862E-03     94.4738E-03
            4094            4466     105.108E-03     113.253E-03
            4094            4467     110.734E-03     113.338E-03
            4095            4433     94.3862E-03     94.4738E-03
            4095            4434     98.6427E-03     98.4143E-03
            4095            4467     110.734E-03     113.338E-03
            4095            4468     115.458E-03     120.149E-03
            4096            4434     98.6427E-03     98.4143E-03
            4096            4435     103.059E-03     100.930E-03
            4096            4468     115.458E-03     120.149E-03
            4096            4469     122.212E-03     123.415E-03
            4097            4435     103.059E-03     100.930E-03
            4097            4436     105.061E-03     110.863E-03
            4097            4469     122.212E-03     123.415E-03
            4097            4470     124.130E-03     137.195E-03
            4098            4436     105.061E-03     110.863E-03
            4098            4437     121.817E-03     111.601E-03
            4098            4470     124.130E-03     137.195E-03
            4098            4471     147.504E-03     139.223E-03
            4099            4437     121.817E-03     111.601E-03
            4099            4438     120.745E-03     116.301E-03
            4099            4471     147.504E-03     139.223E-03
            4099            4472     149.277E-03     147.996E-03
            4100             751     104.366E-03     118.118E-03
            4100             752     128.369E-03     149.881E-03
            4100            4438     120.745E-03     116.301E-03
            4100            4472     149.277E-03     147.996E-03
            4101             199     14.6158E-03     14.5971E-03
            4101             200     9.03472E-03     11.1247E-03
            4101            4439     28.1862E-03     29.0327E-03
            4101            4473     14.9691E-03     18.0781E-03
            4102            4439     28.1862E-03     29.0327E-03
            4102            4440     30.6380E-03     29.6393E-03
            4102            4473     14.9691E-03     18.0781E-03
            4102            4474     19.5104E-03     16.5898E-03
            4103            4440     30.6380E-03     29.6393E-03
            4103            4441     31.2642E-03     31.2544E-03
            4103            4474     19.5104E-03     16.5898E-03
            4103            4475     25.4829E-03     25.5401E-03
            4104            4441     31.2642E-03     31.2544E-03
            4104            4442     30.3790E-03     32.8712E-03
            4104            4475     25.4829E-03     25.5401E-03
            4104            4476     24.8826E-03     28.3894E-03
            4105            4442     30.3790E-03     32.8712E-03
            4105            4443     31.7184E-03     32.8396E-03
            4105            4476     24.8826E-03     28.3894E-03
            4105            4477     23.8786E-03     23.0969E-03
            4106            4443     31.7184E-03     32.8396E-03
            4106            4444     32.5442E-03     33.8102E-03
            4106            4477     23.8786E-03     23.0969E-03
            4106            4478     24.6895E-03     24.0867E-03
            4107            4444     32.5442E-03     33.8102E-03
            4107            4445     34.6981E-03     35.3899E-03
            4107            4478     24.6895E-03     24.0867E-03
            4107            4479     29.0177E-03     28.5566E-03
            4108            4445     34.6981E-03     35.3899E-03
            4108            4446     38.4617E-03     38.7484E-03
            4108            4479     29.0177E-03     28.5566E-03
            4108            4480     35.0575E-03     35.3154E-03
            4109            4446     38.4617E-03     38.7484E-03
            4109            4447     42.4225E-03     43.8138E-03
            4109            4480     35.0575E-03     35.3154E-03
            4109            4481     41.7555E-03     42.5839E-03
            4110            4447     42.4225E-03     43.8138E-03
            4110            4448     48.2901E-03     49.4802E-03
            4110            4481     41.7555E-03     42.5839E-03
            4110            4482     49.2211E-03     50.5786E-03
            4111            4448     48.2901E-03     49.4802E-03
            4111            4449     54.7844E-03     54.5725E-03
            4111            4482     49.2211E-03     50.5786E-03
            4111            4483     57.9161E-03     57.3160E-03
            4112            4449     54.7844E-03     54.5725E-03
            4112            4450     58.3848E-03     64.6833E-03
            4112            4483     57.9161E-03     57.3160E-03
            4112            4484     63.3667E-03     68.9680E-03
            4113            4450     58.3848E-03     64.6833E-03
            4113            4451     72.6868E-03     68.0780E-03
            4113            4484     63.3667E-03     68.9680E-03
            4113            4485     79.0152E-03     75.1314E-03
            4114            4451     72.6868E-03     68.0780E-03
            4114            4452     74.8363E-03     74.2149E-03
            4114            4485     79.0152E-03     75.1314E-03
            4114            4486     85.4122E-03     84.9071E-03
            4115            4452     74.8363E-03     74.2149E-03
            4115            4453     63.3595E-03     79.8074E-03
            4115            4486     85.4122E-03     84.9071E-03
            4115            4487     72.0728E-03     85.3506E-03
            4116            4453     63.3595E-03     79.8074E-03
            4116            4454     70.3251E-03     71.0488E-03
            4116            4487     72.0728E-03     85.3506E-03
            4116            4488     72.9982E-03     70.3959E-03
            4117            4454     70.3251E-03     71.0488E-03
            4117            4455     72.4443E-03     72.0516E-03
            4117            4488     72.9982E-03     70.3959E-03
            4117            4489     75.1319E-03     73.3109E-03
            4118            4455     72.4443E-03     72.0516E-03
            4118            4456     71.0133E-03     75.5020E-03
            4118            4489     75.1319E-03     73.3109E-03
            4118            4490     76.4580E-03     79.6232E-03
            4119            4456     71.0133E-03     75.5020E-03
            4119            4457     76.1631E-03     78.0718E-03
            4119            4490     76.4580E-03     79.6232E-03
            4119            4491     84.0289E-03     84.8399E-03
            4120            4457     76.1631E-03     78.0718E-03
            4120            4458     81.4935E-03     84.5650E-03
            4120            4491     84.0289E-03     84.8399E-03
            4120            4492     90.4933E-03     93.3581E-03
            4121            4458     81.4935E-03     84.5650E-03
            4121            4459     88.3104E-03     88.7647E-03
            4121            4492     90.4933E-03     93.3581E-03
            4121            4493     99.3246E-03     98.9601E-03
            4122            4459     88.3104E-03     88.7647E-03
            4122            4460     91.1390E-03     100.919E-03
            4122            4493     99.3246E-03     98.9601E-03
            4122            4494     103.426E-03     111.881E-03
            4123            4460     91.1390E-03     100.919E-03
            4123            4461     110.276E-03     103.673E-03
            4123            4494     103.426E-03     111.881E-03
            4123            4495     122.567E-03     117.132E-03
            4124            4461     110.276E-03     103.673E-03
            4124            4462     112.343E-03     111.310E-03
            4124            4495     122.567E-03     117.132E-03
            4124            4496     129.413E-03     128.064E-03
            4125            4462     112.343E-03     111.310E-03
            4125            4463     95.6177E-03     122.814E-03
            4125            4496     129.413E-03     128.064E-03
            4125            4497     112.647E-03     134.401E-03
            4126            4463     95.6177E-03     122.814E-03
            4126            4464     109.612E-03     110.061E-03
            4126            4497     112.647E-03     134.401E-03
            4126            4498     119.697E-03     116.204E-03
            4127            4464     109.612E-03     110.061E-03
            4127            4465     111.847E-03     109.386E-03
            4127            4498     119.697E-03     116.204E-03
            4127            4499     120.802E-03     117.273E-03
            4128            4465     111.847E-03     109.386E-03
            4128            4466     105.108E-03     113.253E-03
            4128            4499     120.802E-03     117.273E-03
            4128            4500     117.546E-03     123.727E-03
            4129            4466     105.108E-03     113.253E-03
            4129            4467     110.734E-03     113.338E-03
            4129            4500     117.546E-03     123.727E-03
            4129            4501     125.673E-03     126.610E-03
            4130            4467     110.734E-03     113.338E-03
            4130            4468     115.458E-03     120.149E-03
            4130            4501     125.673E-03     126.610E-03
            4130            4502     131.077E-03     135.349E-03
            4131            4468     115.458E-03     120.149E-03
            4131            4469     122.212E-03     123.415E-03
            4131            4502     131.077E-03     135.349E-03
            4131            4503     139.832E-03     139.694E-03
            4132            4469     122.212E-03     123.415E-03
            4132            4470     124.130E-03     137.195E-03
            4132            4503     139.832E-03     139.694E-03
            4132            4504     142.533E-03     153.627E-03
            4133            4470     124.130E-03     137.195E-03
            4133            4471     147.504E-03     139.223E-03
            4133            4504     142.533E-03     153.627E-03
            4133            4505     164.772E-03     157.878E-03
            4134            4471     147.504E-03     139.223E-03
            4134            4472     149.277E-03     147.996E-03
            4134            4505     164.772E-03     157.878E-03
            4134            4506     171.935E-03     169.726E-03
            4135             752     128.369E-03     149.881E-03
            4135             753     150.237E-03     169.476E-03
            4135            4472     149.277E-03     147.996E-03
            4135            4506     171.935E-03     169.726E-03
            4136              13     6.18179E-03     9.73074E-03
            4136             200     9.03472E-03     11.1247E-03
            4136             787     10.0044E-03     13.8585E-03
            4136            4473     14.9691E-03     18.0781E-03
            4137             786     15.6036E-03     12.4936E-03
            4137             787     10.0044E-03     13.8585E-03
            4137            4473     14.9691E-03     18.0781E-03
            4137            4474     19.5104E-03     16.5898E-03
            4138             785     23.7385E-03     24.6972E-03
            4138             786     15.6036E-03     12.4936E-03
            4138            4474     19.5104E-03     16.5898E-03
            4138            4475     25.4829E-03     25.5401E-03
            4139             784     23.8208E-03     27.7849E-03
            4139             785     23.7385E-03     24.6972E-03
            4139            4475     25.4829E-03     25.5401E-03
            4139            4476     24.8826E-03     28.3894E-03
            4140             783     23.3625E-03     22.5004E-03
            4140             784     23.8208E-03     27.7849E-03
            4140            4476     24.8826E-03     28.3894E-03
            4140            4477     23.8786E-03     23.0969E-03
            4141             782     27.6950E-03     26.4345E-03
            4141             783     23.3625E-03     22.5004E-03
            4141            4477     23.8786E-03     23.0969E-03
            4141            4478     24.6895E-03     24.0867E-03
            4142             781     33.8085E-03     32.7997E-03
            4142             782     27.6950E-03     26.4345E-03
            4142            4478     24.6895E-03     24.0867E-03
            4142            4479     29.0177E-03     28.5566E-03
            4143             780     40.2474E-03     40.0706E-03
            4143             781     33.8085E-03     32.7997E-03
            4143            4479     29.0177E-03     28.5566E-03
            4143            4480     35.0575E-03     35.3154E-03
            4144             779     47.2890E-03     46.9920E-03
            4144             780     40.2474E-03     40.0706E-03
            4144            4480     35.0575E-03     35.3154E-03
            4144            4481     41.7555E-03     42.5839E-03
            4145             778     53.9146E-03     54.4316E-03
            4145             779     47.2890E-03     46.9920E-03
            4145            4481     41.7555E-03     42.5839E-03
            4145            4482     49.2211E-03     50.5786E-03
            4146             777     61.6275E-03     60.9375E-03
            4146             778     53.9146E-03     54.4316E-03
            4146            4482     49.2211E-03     50.5786E-03
            4146            4483     57.9161E-03     57.3160E-03
            4147             776     67.6793E-03     70.1746E-03
            4147             777     61.6275E-03     60.9375E-03
            4147            4483     57.9161E-03     57.3160E-03
            4147            4484     63.3667E-03     68.9680E-03
            4148             775     78.5966E-03     76.3803E-03
            4148             776     67.6793E-03     70.1746E-03
            4148            4484     63.3667E-03     68.9680E-03
            4148            4485     79.0152E-03     75.1314E-03
            4149             774     86.5463E-03     86.9054E-03
            4149             775     78.5966E-03     76.3803E-03
            4149            4485     79.0152E-03     75.1314E-03
            4149            4486     85.4122E-03     84.9071E-03
            4150             773     76.2135E-03     81.8503E-03
            4150             774     86.5463E-03     86.9054E-03
            4150            4486     85.4122E-03     84.9071E-03
            4150            4487     72.0728E-03     85.3506E-03
            4151             772     72.0511E-03     68.3592E-03
            4151             773     76.2135E-03     81.8503E-03
            4151            4487     72.0728E-03     85.3506E-03
            4151            4488     72.9982E-03     70.3959E-03
            4152             771     78.3582E-03     76.3276E-03
            4152             772     72.0511E-03     68.3592E-03
            4152            4488     72.9982E-03     70.3959E-03
            4152            4489     75.1319E-03     73.3109E-03
            4153             770     83.9883E-03     84.4602E-03
            4153             771     78.3582E-03     76.3276E-03
            4153            4489     75.1319E-03     73.3109E-03
            4153            4490     76.4580E-03     79.6232E-03
            4154             769     91.5082E-03     90.9650E-03
            4154             770     83.9883E-03     84.4602E-03
            4154            4490     76.4580E-03     79.6232E-03
            4154            4491     84.0289E-03     84.8399E-03
            4155             768     97.9318E-03     98.7684E-03
            4155             769     91.5082E-03     90.9650E-03
            4155            4491     84.0289E-03     84.8399E-03
            4155            4492     90.4933E-03     93.3581E-03
            4156             767     105.693E-03     104.763E-03
            4156             768     97.9318E-03     98.7684E-03
            4156            4492     90.4933E-03     93.3581E-03
            4156            4493     99.3246E-03     98.9601E-03
            4157             766     111.071E-03     114.456E-03
            4157             767     105.693E-03     104.763E-03
            4157            4493     99.3246E-03     98.9601E-03
            4157            4494     103.426E-03     111.881E-03
            4158             765     122.946E-03     119.684E-03
            4158             766     111.071E-03     114.456E-03
            4158            4494     103.426E-03     111.881E-03
            4158            4495     122.567E-03     117.132E-03
            4159             764     130.920E-03     130.109E-03
            4159             765     122.946E-03     119.684E-03
            4159            4495     122.567E-03     117.132E-03
            4159            4496     129.413E-03     128.064E-03
            4160             763     120.048E-03     128.665E-03
            4160             764     130.920E-03     130.109E-03
            4160            4496     129.413E-03     128.064E-03
            4160            4497     112.647E-03     134.401E-03
            4161             762     119.034E-03     114.280E-03
            4161             763     120.048E-03     128.665E-03
            4161            4497     112.647E-03     134.401E-03
            4161            4498     119.697E-03     116.204E-03
            4162             761     124.544E-03     121.418E-03
            4162             762     119.034E-03     114.280E-03
            4162            4498     119.697E-03     116.204E-03
            4162            4499     120.802E-03     117.273E-03
            4163             760     128.232E-03     129.766E-03
            4163             761     124.544E-03     121.418E-03
            4163            4499     120.802E-03     117.273E-03
            4163            4500     117.546E-03     123.727E-03
            4164             759     135.812E-03     134.964E-03
            4164             760     128.232E-03     129.766E-03
            4164            4500     117.546E-03     123.727E-03
            4164            4501     125.673E-03     126.610E-03
            4165             758     141.429E-03     142.710E-03
            4165             759     135.812E-03     134.964E-03
            4165            4501     125.673E-03     126.610E-03
            4165            4502     131.077E-03     135.349E-03
            4166             757     148.963E-03     147.774E-03
            4166             758     141.429E-03     142.710E-03
            4166            4502     131.077E-03     135.349E-03
            4166            4503     139.832E-03     139.694E-03
            4167             756     153.351E-03     157.607E-03
            4167             757     148.963E-03     147.774E-03
            4167            4503     139.832E-03     139.694E-03
            4167            4504     142.533E-03     153.627E-03
            4168             755     165.887E-03     161.603E-03
            4168             756     153.351E-03     157.607E-03
            4168            4504     142.533E-03     153.627E-03
            4168            4505     164.772E-03     157.878E-03
            4169             754     173.580E-03     171.675E-03
            4169             755     165.887E-03     161.603E-03
            4169            4505     164.772E-03     157.878E-03
            4169            4506     171.935E-03     169.726E-03
            4170              34     159.785E-03     170.008E-03
            4170             753     150.237E-03     169.476E-03
            4170             754     173.580E-03     171.675E-03
            4170            4506     171.935E-03     169.726E-03
            4171              34     159.785E-03     170.008E-03
            4171             754     173.580E-03     171.675E-03
            4171             788     148.849E-03     153.881E-03
            4171            4507     153.472E-03     156.209E-03
            4172              35     136.159E-03     139.211E-03
            4172             788     148.849E-03     153.881E-03
            4172             789     134.741E-03     138.330E-03
            4172            4507     153.472E-03     156.209E-03
            4173             754     173.580E-03     171.675E-03
            4173             755     165.887E-03     161.603E-03
            4173            4507     153.472E-03     156.209E-03
            4173            4508     154.118E-03     155.180E-03
            4174             789     134.741E-03     138.330E-03
            4174             790     139.873E-03     142.502E-03
            4174            4507     153.472E-03     156.209E-03
            4174            4508     154.118E-03     155.180E-03
            4175             755     165.887E-03     161.603E-03
            4175             756     153.351E-03     157.607E-03
            4175            4508     154.118E-03     155.180E-03
            4175            4509     149.814E-03     152.748E-03
            4176             790     139.873E-03     142.502E-03
            4176             791     140.171E-03     142.912E-03
            4176            4508     154.118E-03     155.180E-03
            4176            4509     149.814E-03     152.748E-03
            4177             756     153.351E-03     157.607E-03
            4177             757     148.963E-03     147.774E-03
            4177            4509     149.814E-03     152.748E-03
            4177            4510     145.753E-03     147.776E-03
            4178             791     140.171E-03     142.912E-03
            4178             792     137.786E-03     140.917E-03
            4178            4509     149.814E-03     152.748E-03
            4178            4510     145.753E-03     147.776E-03
            4179             757     148.963E-03     147.774E-03
            4179             758     141.429E-03     142.710E-03
            4179            4510     145.753E-03     147.776E-03
            4179            4511     140.815E-03     143.041E-03
            4180             792     137.786E-03     140.917E-03
            4180             793     134.823E-03     137.520E-03
            4180            4510     145.753E-03     147.776E-03
            4180            4511     140.815E-03     143.041E-03
            4181             758     141.429E-03     142.710E-03
            4181             759     135.812E-03     134.964E-03
            4181            4511     140.815E-03     143.041E-03
            4181            4512     135.995E-03     137.704E-03
            4182             793     134.823E-03     137.520E-03
            4182             794     130.907E-03     133.662E-03
            4182            4511     140.815E-03     143.041E-03
            4182            4512     135.995E-03     137.704E-03
            4183             759     135.812E-03     134.964E-03
            4183             760     128.232E-03     129.766E-03
            4183            4512     135.995E-03     137.704E-03
            4183            4513     130.384E-03     132.166E-03
            4184             794     130.907E-03     133.662E-03
            4184             795     126.527E-03     128.778E-03
            4184            4512     135.995E-03     137.704E-03
            4184            4513     130.384E-03     132.166E-03
            4185             760     128.232E-03     129.766E-03
            4185             761     124.544E-03     121.418E-03
            4185            4513     130.384E-03     132.166E-03
            4185            4514     124.208E-03     124.900E-03
            4186             795     126.527E-03     128.778E-03
            4186             796     121.535E-03     122.651E-03
            4186            4513     130.384E-03     132.166E-03
            4186            4514     124.208E-03     124.900E-03
            4187             761     124.544E-03     121.418E-03
            4187             762     119.034E-03     114.280E-03
            4187            4514     124.208E-03     124.900E-03
            4187            4515     117.360E-03     115.466E-03
            4188             796     121.535E-03     122.651E-03
            4188             797     116.264E-03     114.810E-03
            4188            4514     124.208E-03     124.900E-03
            4188            4515     117.360E-03     115.466E-03
            4189             762     119.034E-03     114.280E-03
            4189             763     120.048E-03     128.665E-03
            4189            4515     117.360E-03     115.466E-03
            4189            4516     112.247E-03     114.463E-03
            4190             797     116.264E-03     114.810E-03
            4190             798     103.746E-03     104.090E-03
            4190            4515     117.360E-03     115.466E-03
            4190            4516     112.247E-03     114.463E-03
            4191             763     120.048E-03     128.665E-03
            4191             764     130.920E-03     130.109E-03
            4191            4516     112.247E-03     114.463E-03
            4191            4517     113.334E-03     116.166E-03
            4192             798     103.746E-03     104.090E-03
            4192             799     96.4081E-03     99.9238E-03
            4192            4516     112.247E-03     114.463E-03
            4192            4517     113.334E-03     116.166E-03
            4193             764     130.920E-03     130.109E-03
            4193             765     122.946E-03     119.684E-03
            4193            4517     113.334E-03     116.166E-03
            4193            4518     112.666E-03     113.388E-03
            4194             799     96.4081E-03     99.9238E-03
            4194             800     99.8824E-03     101.990E-03
            4194            4517     113.334E-03     116.166E-03
            4194            4518     112.666E-03     113.388E-03
            4195             765     122.946E-03     119.684E-03
            4195             766     111.071E-03     114.456E-03
            4195            4518     112.666E-03     113.388E-03
            4195            4519     107.702E-03     109.854E-03
            4196             800     99.8824E-03     101.990E-03
            4196             801     99.1872E-03     101.133E-03
            4196            4518     112.666E-03     113.388E-03
            4196            4519     107.702E-03     109.854E-03
            4197             766     111.071E-03     114.456E-03
            4197             767     105.693E-03     104.763E-03
            4197            4519     107.702E-03     109.854E-03
            4197            4520     103.041E-03     104.419E-03
            4198             801     99.1872E-03     101.133E-03
            4198             802     96.2174E-03     98.3973E-03
            4198            4519     107.702E-03     109.854E-03
            4198            4520     103.041E-03     104.419E-03
            4199             767     105.693E-03     104.763E-03
            4199             768     97.9318E-03     98.7684E-03
            4199            4520     103.041E-03     104.419E-03
            4199            4521     97.7592E-03     99.2086E-03
            4200             802     96.2174E-03     98.3973E-03
            4200             803     92.8171E-03     94.6193E-03
            4200            4520     103.041E-03     104.419E-03
            4200            4521     97.7592E-03     99.2086E-03
            4201             768     97.9318E-03     98.7684E-03
            4201             769     91.5082E-03     90.9650E-03
            4201            4521     97.7592E-03     99.2086E-03
            4201            4522     92.5463E-03     93.5887E-03
            4202             803     92.8171E-03     94.6193E-03
            4202             804     88.7290E-03     90.5015E-03
            4202            4521     97.7592E-03     99.2086E-03
            4202            4522     92.5463E-03     93.5887E-03
            4203             769     91.5082E-03     90.9650E-03
            4203             770     83.9883E-03     84.4602E-03
            4203            4522     92.5463E-03     93.5887E-03
            4203            4523     86.7865E-03     87.7032E-03
            4204             804     88.7290E-03     90.5015E-03
            4204             805     84.3193E-03     85.7267E-03
            4204            4522     92.5463E-03     93.5887E-03
            4204            4523     86.7865E-03     87.7032E-03
            4205             770     83.9883E-03     84.4602E-03
            4205             771     78.3582E-03     76.3276E-03
            4205            4523     86.7865E-03     87.7032E-03
            4205            4524     80.4368E-03     80.7441E-03
            4206             805     84.3193E-03     85.7267E-03
            4206             806     79.8287E-03     80.3151E-03
            4206            4523     86.7865E-03     87.7032E-03
            4206            4524     80.4368E-03     80.7441E-03
            4207             771     78.3582E-03     76.3276E-03
            4207             772     72.0511E-03     68.3592E-03
            4207            4524     80.4368E-03     80.7441E-03
            4207            4525     74.3314E-03     72.3161E-03
            4208             806     79.8287E-03     80.3151E-03
            4208             807     76.0989E-03     74.2179E-03
            4208            4524     80.4368E-03     80.7441E-03
            4208            4525     74.3314E-03     72.3161E-03
            4209             772     72.0511E-03     68.3592E-03
            4209             773     76.2135E-03     81.8503E-03
            4209            4525     74.3314E-03     72.3161E-03
            4209            4526     70.6803E-03     72.5445E-03
            4210             807     76.0989E-03     74.2179E-03
            4210             808     64.2181E-03     64.6544E-03
            4210            4525     74.3314E-03     72.3161E-03
            4210            4526     70.6803E-03     72.5445E-03
            4211             773     76.2135E-03     81.8503E-03
            4211             774     86.5463E-03     86.9054E-03
            4211            4526     70.6803E-03     72.5445E-03
            4211            4527     71.2577E-03     74.2454E-03
            4212             808     64.2181E-03     64.6544E-03
            4212             809     55.4495E-03     58.9272E-03
            4212            4526     70.6803E-03     72.5445E-03
            4212            4527     71.2577E-03     74.2454E-03
            4213             774     86.5463E-03     86.9054E-03
            4213             775     78.5966E-03     76.3803E-03
            4213            4527     71.2577E-03     74.2454E-03
            4213            4528     69.5529E-03     69.8406E-03
            4214             809     55.4495E-03     58.9272E-03
            4214             810     57.2254E-03     58.7501E-03
            4214            4527     71.2577E-03     74.2454E-03
            4214            4528     69.5529E-03     69.8406E-03
            4215             775     78.5966E-03     76.3803E-03
            4215             776     67.6793E-03     70.1746E-03
            4215            4528     69.5529E-03     69.8406E-03
            4215            4529     64.2113E-03     65.4643E-03
            4216             810     57.2254E-03     58.7501E-03
            4216             811     55.6203E-03     56.6347E-03
            4216            4528     69.5529E-03     69.8406E-03
            4216            4529     64.2113E-03     65.4643E-03
            4217             776     67.6793E-03     70.1746E-03
            4217             777     61.6275E-03     60.9375E-03
            4217            4529     64.2113E-03     65.4643E-03
            4217            4530     59.2626E-03     59.8932E-03
            4218             811     55.6203E-03     56.6347E-03
            4218             812     52.1517E-03     53.2403E-03
            4218            4529     64.2113E-03     65.4643E-03
            4218            4530     59.2626E-03     59.8932E-03
            4219             777     61.6275E-03     60.9375E-03
            4219             778     53.9146E-03     54.4316E-03
            4219            4530     59.2626E-03     59.8932E-03
            4219            4531     54.0162E-03     54.6050E-03
            4220             812     52.1517E-03     53.2403E-03
            4220             813     48.4684E-03     49.1937E-03
            4220            4530     59.2626E-03     59.8932E-03
            4220            4531     54.0162E-03     54.6050E-03
            4221             778     53.9146E-03     54.4316E-03
            4221             779     47.2890E-03     46.9920E-03
            4221            4531     54.0162E-03     54.6050E-03
            4221            4532     48.9477E-03     49.2063E-03
            4222             813     48.4684E-03     49.1937E-03
            4222             814     44.3240E-03     44.9866E-03
            4222            4531     54.0162E-03     54.6050E-03
            4222            4532     48.9477E-03     49.2063E-03
            4223             779     47.2890E-03     46.9920E-03
            4223             780     40.2474E-03     40.0706E-03
            4223            4532     48.9477E-03     49.2063E-03
            4223            4533     43.6874E-03     43.7650E-03
            4224             814     44.3240E-03     44.9866E-03
            4224             815     40.0972E-03     40.5097E-03
            4224            4532     48.9477E-03     49.2063E-03
            4224            4533     43.6874E-03     43.7650E-03
            4225             780     40.2474E-03     40.0706E-03
            4225             781     33.8085E-03     32.7997E-03
            4225            4533     43.6874E-03     43.7650E-03
            4225            4534     38.3761E-03     38.1008E-03
            4226             815     40.0972E-03     40.5097E-03
            4226             816     35.5610E-03     35.8794E-03
            4226            4533     43.6874E-03     43.7650E-03
            4226            4534     38.3761E-03     38.1008E-03
            4227             781     33.8085E-03     32.7997E-03
            4227             782     27.6950E-03     26.4345E-03
            4227            4534     38.3761E-03     38.1008E-03
            4227            4535     32.7149E-03     32.2826E-03
            4228             816     35.5610E-03     35.8794E-03
            4228             817     31.5236E-03     31.3159E-03
            4228            4534     38.3761E-03     38.1008E-03
            4228            4535     32.7149E-03     32.2826E-03
            4229             782     27.6950E-03     26.4345E-03
            4229             783     23.3625E-03     22.5004E-03
            4229            4535     32.7149E-03     32.2826E-03
            4229            4536     28.2166E-03     27.3221E-03
            4230             817     31.5236E-03     31.3159E-03
            4230             818     29.5374E-03     27.6359E-03
            4230            4535     32.7149E-03     32.2826E-03
            4230            4536     28.2166E-03     27.3221E-03
            4231             783     23.3625E-03     22.5004E-03
            4231             784     23.8208E-03     27.7849E-03
            4231            4536     28.2166E-03     27.3221E-03
            4231            4537     21.6469E-03     24.3366E-03
            4232             818     29.5374E-03     27.6359E-03
            4232             819     18.2405E-03     19.4961E-03
            4232            4536     28.2166E-03     27.3221E-03
            4232            4537     21.6469E-03     24.3366E-03
            4233             784     23.8208E-03     27.7849E-03
            4233             785     23.7385E-03     24.6972E-03
            4233            4537     21.6469E-03     24.3366E-03
            4233            4538     16.3046E-03     19.3297E-03
            4234             819     18.2405E-03     19.4961E-03
            4234             820     8.28409E-03     12.0690E-03
            4234            4537     21.6469E-03     24.3366E-03
            4234            4538     16.3046E-03     19.3297E-03
            4235             785     23.7385E-03     24.6972E-03
            4235             786     15.6036E-03     12.4936E-03
            4235            4538     16.3046E-03     19.3297E-03
            4235            4539     13.6943E-03     12.8435E-03
            4236             820     8.28409E-03     12.0690E-03
            4236             821     9.75573E-03     9.93084E-03
            4236            4538     16.3046E-03     19.3297E-03
            4236            4539     13.6943E-03     12.8435E-03
            4237             786     15.6036E-03     12.4936E-03
            4237             787     10.0044E-03     13.8585E-03
            4237            4539     13.6943E-03     12.8435E-03
            4237            4540     10.7909E-03     10.5429E-03
            4238             821     9.75573E-03     9.93084E-03
            4238             822     9.90553E-03     6.69227E-03
            4238            4539     13.6943E-03     12.8435E-03
            4238            4540     10.7909E-03     10.5429E-03
            4239              13     6.18179E-03     9.73074E-03
            4239             787     10.0044E-03     13.8585E-03
            4239             823     5.72620E-03     6.01110E-03
            4239            4540     10.7909E-03     10.5429E-03
            4240              36     5.23019E-03     2.89028E-03
            4240             822     9.90553E-03     6.69227E-03
            4240             823     5.72620E-03     6.01110E-03
            4240            4540     10.7909E-03     10.5429E-03
            4241              22     69.7670E-03     83.4965E-03
            4241             407     38.8501E-03     67.9937E-03
            4241             602     90.6578E-03     103.270E-03
            4241            4541     43.3725E-03     56.7778E-03
            4242             406     35.4029E-03     63.5940E-03
            4242             407     38.8501E-03     67.9937E-03
            4242            4541     43.3725E-03     56.7778E-03
            4242            4542     47.3228E-03     43.3173E-03
            4243             405     36.2867E-03     68.7906E-03
            4243             406     35.4029E-03     63.5940E-03
            4243            4542     47.3228E-03     43.3173E-03
            4243            4543     47.3392E-03     48.1946E-03
            4244             404     41.6964E-03     72.9969E-03
            4244             405     36.2867E-03     68.7906E-03
            4244            4543     47.3392E-03     48.1946E-03
            4244            4544     53.5486E-03     54.8033E-03
            4245             403     47.7905E-03     77.8658E-03
            4245             404     41.6964E-03     72.9969E-03
            4245            4544     53.5486E-03     54.8033E-03
            4245            4545     59.5219E-03     61.2107E-03
            4246             402     54.2431E-03     82.7489E-03
            4246             403     47.7905E-03     77.8658E-03
            4246            4545     59.5219E-03     61.2107E-03
            4246            4546     65.8143E-03     67.7086E-03
            4247             401     60.8844E-03     87.7108E-03
            4247             402     54.2431E-03     82.7489E-03
            4247            4546     65.8143E-03     67.7086E-03
            4247            4547     72.1763E-03     74.2066E-03
            4248             400     67.6100E-03     92.6844E-03
            4248             401     60.8844E-03     87.7108E-03
            4248            4547     72.1763E-03     74.2066E-03
            4248            4548     78.5936E-03     80.7197E-03
            4249             399     74.3673E-03     97.6609E-03
            4249             400     67.6100E-03     92.6844E-03
            4249            4548     78.5936E-03     80.7197E-03
            4249            4549     85.0406E-03     87.2389E-03
            4250             398     81.1395E-03     102.611E-03
            4250             399     74.3673E-03     97.6609E-03
            4250            4549     85.0406E-03     87.2389E-03
            4250            4550     91.5148E-03     93.7578E-03
            4251             397     87.8805E-03     107.543E-03
            4251             398     81.1395E-03     102.611E-03
            4251            4550     91.5148E-03     93.7578E-03
            4251            4551     97.9888E-03     100.294E-03
            4252             396     94.6307E-03     112.407E-03
            4252             397     87.8805E-03     107.543E-03
            4252            4551     97.9888E-03     100.294E-03
            4252            4552     104.505E-03     106.803E-03
            4253             395     101.305E-03     117.259E-03
            4253             396     94.6307E-03     112.407E-03
            4253            4552     104.505E-03     106.803E-03
            4253            4553     110.971E-03     113.372E-03
            4254             394     108.049E-03     121.992E-03
            4254             395     101.305E-03     117.259E-03
            4254            4553     110.971E-03     113.372E-03
            4254            4554     117.547E-03     119.844E-03
            4255             393     114.678E-03     126.780E-03
            4255             394     108.049E-03     121.992E-03
            4255            4554     117.547E-03     119.844E-03
            4255            4555     123.970E-03     126.484E-03
            4256             392     121.558E-03     131.435E-03
            4256             393     114.678E-03     126.780E-03
            4256            4555     123.970E-03     126.484E-03
            4256            4556     130.641E-03     132.894E-03
            4257             391     128.366E-03     136.384E-03
            4257             392     121.558E-03     131.435E-03
            4257            4556     130.641E-03     132.894E-03
            4257            4557     137.018E-03     139.622E-03
            4258             390     135.748E-03     141.483E-03
            4258             391     128.366E-03     136.384E-03
            4258            4557     137.018E-03     139.622E-03
            4258            4558     143.691E-03     146.000E-03
            4259              21     143.854E-03     147.826E-03
            4259             390     135.748E-03     141.483E-03
            4259             748     150.183E-03     152.541E-03
            4259            4558     143.691E-03     146.000E-03
            4260             602     90.6578E-03     103.270E-03
            4260             603     91.1720E-03     100.002E-03
            4260            4541     43.3725E-03     56.7778E-03
            4260            4559     47.1134E-03     53.4336E-03
            4261            4541     43.3725E-03     56.7778E-03
            4261            4542     47.3228E-03     43.3173E-03
            4261            4559     47.1134E-03     53.4336E-03
            4261            4560     44.2464E-03     30.3193E-03
            4262            4542     47.3228E-03     43.3173E-03
            4262            4543     47.3392E-03     48.1946E-03
            4262            4560     44.2464E-03     30.3193E-03
            4262            4561     47.1267E-03     31.8826E-03
            4263            4543     47.3392E-03     48.1946E-03
            4263            4544     53.5486E-03     54.8033E-03
            4263            4561     47.1267E-03     31.8826E-03
            4263            4562     53.8183E-03     39.7182E-03
            4264            4544     53.5486E-03     54.8033E-03
            4264            4545     59.5219E-03     61.2107E-03
            4264            4562     53.8183E-03     39.7182E-03
            4264            4563     60.3179E-03     47.6682E-03
            4265            4545     59.5219E-03     61.2107E-03
            4265            4546     65.8143E-03     67.7086E-03
            4265            4563     60.3179E-03     47.6682E-03
            4265            4564     67.0849E-03     55.9350E-03
            4266            4546     65.8143E-03     67.7086E-03
            4266            4547     72.1763E-03     74.2066E-03
            4266            4564     67.0849E-03     55.9350E-03
            4266            4565     74.0435E-03     64.1496E-03
            4267            4547     72.1763E-03     74.2066E-03
            4267            4548     78.5936E-03     80.7197E-03
            4267            4565     74.0435E-03     64.1496E-03
            4267            4566     81.1083E-03     72.3971E-03
            4268            4548     78.5936E-03     80.7197E-03
            4268            4549     85.0406E-03     87.2389E-03
            4268            4566     81.1083E-03     72.3971E-03
            4268            4567     88.2490E-03     80.6151E-03
            4269            4549     85.0406E-03     87.2389E-03
            4269            4550     91.5148E-03     93.7578E-03
            4269            4567     88.2490E-03     80.6151E-03
            4269            4568     95.4320E-03     88.8454E-03
            4270            4550     91.5148E-03     93.7578E-03
            4270            4551     97.9888E-03     100.294E-03
            4270            4568     95.4320E-03     88.8454E-03
            4270            4569     102.626E-03     97.0496E-03
            4271            4551     97.9888E-03     100.294E-03
            4271            4552     104.505E-03     106.803E-03
            4271            4569     102.626E-03     97.0496E-03
            4271            4570     109.837E-03     105.238E-03
            4272            4552     104.505E-03     106.803E-03
            4272            4553     110.971E-03     113.372E-03
            4272            4570     109.837E-03     105.238E-03
            4272            4571     116.983E-03     113.388E-03
            4273            4553     110.971E-03     113.372E-03
            4273            4554     117.547E-03     119.844E-03
            4273            4571     116.983E-03     113.388E-03
            4273            4572     124.152E-03     121.462E-03
            4274            4554     117.547E-03     119.844E-03
            4274            4555     123.970E-03     126.484E-03
            4274            4572     124.152E-03     121.462E-03
            4274            4573     131.129E-03     129.484E-03
            4275            4555     123.970E-03     126.484E-03
            4275            4556     130.641E-03     132.894E-03
            4275            4573     131.129E-03     129.484E-03
            4275            4574     138.204E-03     137.288E-03
            4276            4556     130.641E-03     132.894E-03
            4276            4557     137.018E-03     139.622E-03
            4276            4574     138.204E-03     137.288E-03
            4276            4575     144.833E-03     145.014E-03
            4277            4557     137.018E-03     139.622E-03
            4277            4558     143.691E-03     146.000E-03
            4277            4575     144.833E-03     145.014E-03
            4277            4576     151.480E-03     152.221E-03
            4278             747     156.981E-03     158.566E-03
            4278             748     150.183E-03     152.541E-03
            4278            4558     143.691E-03     146.000E-03
            4278            4576     151.480E-03     152.221E-03
            4279             603     91.1720E-03     100.002E-03
            4279             604     89.5973E-03     98.4728E-03
            4279            4559     47.1134E-03     53.4336E-03
            4279            4577     36.8471E-03     61.9157E-03
            4280            4559     47.1134E-03     53.4336E-03
            4280            4560     44.2464E-03     30.3193E-03
            4280            4577     36.8471E-03     61.9157E-03
            4280            4578     15.7987E-03     41.1820E-03
            4281            4560     44.2464E-03     30.3193E-03
            4281            4561     47.1267E-03     31.8826E-03
            4281            4578     15.7987E-03     41.1820E-03
            4281            4579     19.7349E-03     42.5293E-03
            4282            4561     47.1267E-03     31.8826E-03
            4282            4562     53.8183E-03     39.7182E-03
            4282            4579     19.7349E-03     42.5293E-03
            4282            4580     27.9632E-03     49.5105E-03
            4283            4562     53.8183E-03     39.7182E-03
            4283            4563     60.3179E-03     47.6682E-03
            4283            4580     27.9632E-03     49.5105E-03
            4283            4581     36.2993E-03     57.6278E-03
            4284            4563     60.3179E-03     47.6682E-03
            4284            4564     67.0849E-03     55.9350E-03
            4284            4581     36.2993E-03     57.6278E-03
            4284            4582     45.2191E-03     66.0569E-03
            4285            4564     67.0849E-03     55.9350E-03
            4285            4565     74.0435E-03     64.1496E-03
            4285            4582     45.2191E-03     66.0569E-03
            4285            4583     54.5295E-03     74.4900E-03
            4286            4565     74.0435E-03     64.1496E-03
            4286            4566     81.1083E-03     72.3971E-03
            4286            4583     54.5295E-03     74.4900E-03
            4286            4584     63.9751E-03     82.8933E-03
            4287            4566     81.1083E-03     72.3971E-03
            4287            4567     88.2490E-03     80.6151E-03
            4287            4584     63.9751E-03     82.8933E-03
            4287            4585     73.5572E-03     91.2806E-03
            4288            4567     88.2490E-03     80.6151E-03
            4288            4568     95.4320E-03     88.8454E-03
            4288            4585     73.5572E-03     91.2806E-03
            4288            4586     83.1840E-03     99.6596E-03
            4289            4568     95.4320E-03     88.8454E-03
            4289            4569     102.626E-03     97.0496E-03
            4289            4586     83.1840E-03     99.6596E-03
            4289            4587     92.8629E-03     108.026E-03
            4290            4569     102.626E-03     97.0496E-03
            4290            4570     109.837E-03     105.238E-03
            4290            4587     92.8629E-03     108.026E-03
            4290            4588     102.531E-03     116.365E-03
            4291            4570     109.837E-03     105.238E-03
            4291            4571     116.983E-03     113.388E-03
            4291            4588     102.531E-03     116.365E-03
            4291            4589     112.207E-03     124.674E-03
            4292            4571     116.983E-03     113.388E-03
            4292            4572     124.152E-03     121.462E-03
            4292            4589     112.207E-03     124.674E-03
            4292            4590     121.806E-03     132.915E-03
            4293            4572     124.152E-03     121.462E-03
            4293            4573     131.129E-03     129.484E-03
            4293            4590     121.806E-03     132.915E-03
            4293            4591     131.414E-03     141.090E-03
            4294            4573     131.129E-03     129.484E-03
            4294            4574     138.204E-03     137.288E-03
            4294            4591     131.414E-03     141.090E-03
            4294            4592     140.824E-03     149.161E-03
            4295            4574     138.204E-03     137.288E-03
            4295            4575     144.833E-03     145.014E-03
            4295            4592     140.824E-03     149.161E-03
            4295            4593     150.314E-03     157.075E-03
            4296            4575     144.833E-03     145.014E-03
            4296            4576     151.480E-03     152.221E-03
            4296            4593     150.314E-03     157.075E-03
            4296            4594     159.255E-03     164.651E-03
            4297             746     167.341E-03     171.793E-03
            4297             747     156.981E-03     158.566E-03
            4297            4576     151.480E-03     152.221E-03
            4297            4594     159.255E-03     164.651E-03
            4298             604     89.5973E-03     98.4728E-03
            4298             605     86.7637E-03     75.3415E-03
            4298            4577     36.8471E-03     61.9157E-03
            4298            4595     41.3297E-03     38.2318E-03
            4299            4577     36.8471E-03     61.9157E-03
            4299            4578     15.7987E-03     41.1820E-03
            4299            4595     41.3297E-03     38.2318E-03
            4299            4596     20.7834E-03     28.2446E-03
            4300            4578     15.7987E-03     41.1820E-03
            4300            4579     19.7349E-03     42.5293E-03
            4300            4596     20.7834E-03     28.2446E-03
            4300            4597     24.4308E-03     32.3489E-03
            4301            4579     19.7349E-03     42.5293E-03
            4301            4580     27.9632E-03     49.5105E-03
            4301            4597     24.4308E-03     32.3489E-03
            4301            4598     32.6392E-03     40.5741E-03
            4302            4580     27.9632E-03     49.5105E-03
            4302            4581     36.2993E-03     57.6278E-03
            4302            4598     32.6392E-03     40.5741E-03
            4302            4599     40.9634E-03     49.2791E-03
            4303            4581     36.2993E-03     57.6278E-03
            4303            4582     45.2191E-03     66.0569E-03
            4303            4599     40.9634E-03     49.2791E-03
            4303            4600     49.8741E-03     58.1695E-03
            4304            4582     45.2191E-03     66.0569E-03
            4304            4583     54.5295E-03     74.4900E-03
            4304            4600     49.8741E-03     58.1695E-03
            4304            4601     59.0318E-03     67.1683E-03
            4305            4583     54.5295E-03     74.4900E-03
            4305            4584     63.9751E-03     82.8933E-03
            4305            4601     59.0318E-03     67.1683E-03
            4305            4602     68.3228E-03     76.1492E-03
            4306            4584     63.9751E-03     82.8933E-03
            4306            4585     73.5572E-03     91.2806E-03
            4306            4602     68.3228E-03     76.1492E-03
            4306            4603     77.6814E-03     85.1551E-03
            4307            4585     73.5572E-03     91.2806E-03
            4307            4586     83.1840E-03     99.6596E-03
            4307            4603     77.6814E-03     85.1551E-03
            4307            4604     87.0876E-03     94.1631E-03
            4308            4586     83.1840E-03     99.6596E-03
            4308            4587     92.8629E-03     108.026E-03
            4308            4604     87.0876E-03     94.1631E-03
            4308            4605     96.5217E-03     103.187E-03
            4309            4587     92.8629E-03     108.026E-03
            4309            4588     102.531E-03     116.365E-03
            4309            4605     96.5217E-03     103.187E-03
            4309            4606     105.992E-03     112.226E-03
            4310            4588     102.531E-03     116.365E-03
            4310            4589     112.207E-03     124.674E-03
            4310            4606     105.992E-03     112.226E-03
            4310            4607     115.485E-03     121.287E-03
            4311            4589     112.207E-03     124.674E-03
            4311            4590     121.806E-03     132.915E-03
            4311            4607     115.485E-03     121.287E-03
            4311            4608     125.033E-03     130.386E-03
            4312            4590     121.806E-03     132.915E-03
            4312            4591     131.414E-03     141.090E-03
            4312            4608     125.033E-03     130.386E-03
            4312            4609     134.614E-03     139.560E-03
            4313            4591     131.414E-03     141.090E-03
            4313            4592     140.824E-03     149.161E-03
            4313            4609     134.614E-03     139.560E-03
            4313            4610     144.333E-03     148.866E-03
            4314            4592     140.824E-03     149.161E-03
            4314            4593     150.314E-03     157.075E-03
            4314            4610     144.333E-03     148.866E-03
            4314            4611     154.081E-03     158.388E-03
            4315            4593     150.314E-03     157.075E-03
            4315            4594     159.255E-03     164.651E-03
            4315            4611     154.081E-03     158.388E-03
            4315            4612     164.392E-03     168.389E-03
            4316             745     175.072E-03     178.572E-03
            4316             746     167.341E-03     171.793E-03
            4316            4594     159.255E-03     164.651E-03
            4316            4612     164.392E-03     168.389E-03
            4317             605     86.7637E-03     75.3415E-03
            4317             606     93.4889E-03     82.7162E-03
            4317            4595     41.3297E-03     38.2318E-03
            4317            4613     41.9972E-03     35.4835E-03
            4318            4595     41.3297E-03     38.2318E-03
            4318            4596     20.7834E-03     28.2446E-03
            4318            4613     41.9972E-03     35.4835E-03
            4318            4614     20.8315E-03     18.3891E-03
            4319            4596     20.7834E-03     28.2446E-03
            4319            4597     24.4308E-03     32.3489E-03
            4319            4614     20.8315E-03     18.3891E-03
            4319            4615     29.8127E-03     22.9530E-03
            4320            4597     24.4308E-03     32.3489E-03
            4320            4598     32.6392E-03     40.5741E-03
            4320            4615     29.8127E-03     22.9530E-03
            4320            4616     38.1339E-03     32.2400E-03
            4321            4598     32.6392E-03     40.5741E-03
            4321            4599     40.9634E-03     49.2791E-03
            4321            4616     38.1339E-03     32.2400E-03
            4321            4617     46.7452E-03     41.6518E-03
            4322            4599     40.9634E-03     49.2791E-03
            4322            4600     49.8741E-03     58.1695E-03
            4322            4617     46.7452E-03     41.6518E-03
            4322            4618     55.3994E-03     50.9583E-03
            4323            4600     49.8741E-03     58.1695E-03
            4323            4601     59.0318E-03     67.1683E-03
            4323            4618     55.3994E-03     50.9583E-03
            4323            4619     64.2049E-03     60.3528E-03
            4324            4601     59.0318E-03     67.1683E-03
            4324            4602     68.3228E-03     76.1492E-03
            4324            4619     64.2049E-03     60.3528E-03
            4324            4620     73.1443E-03     69.8499E-03
            4325            4602     68.3228E-03     76.1492E-03
            4325            4603     77.6814E-03     85.1551E-03
            4325            4620     73.1443E-03     69.8499E-03
            4325            4621     82.1365E-03     79.3656E-03
            4326            4603     77.6814E-03     85.1551E-03
            4326            4604     87.0876E-03     94.1631E-03
            4326            4621     82.1365E-03     79.3656E-03
            4326            4622     91.1679E-03     88.9144E-03
            4327            4604     87.0876E-03     94.1631E-03
            4327            4605     96.5217E-03     103.187E-03
            4327            4622     91.1679E-03     88.9144E-03
            4327            4623     100.222E-03     98.4703E-03
            4328            4605     96.5217E-03     103.187E-03
            4328            4606     105.992E-03     112.226E-03
            4328            4623     100.222E-03     98.4703E-03
            4328            4624     109.302E-03     108.052E-03
            4329            4606     105.992E-03     112.226E-03
            4329            4607     115.485E-03     121.287E-03
            4329            4624     109.302E-03     108.052E-03
            4329            4625     118.404E-03     117.646E-03
            4330            4607     115.485E-03     121.287E-03
            4330            4608     125.033E-03     130.386E-03
            4330            4625     118.404E-03     117.646E-03
            4330            4626     127.559E-03     127.290E-03
            4331            4608     125.033E-03     130.386E-03
            4331            4609     134.614E-03     139.560E-03
            4331            4626     127.559E-03     127.290E-03
            4331            4627     136.741E-03     136.991E-03
            4332            4609     134.614E-03     139.560E-03
            4332            4610     144.333E-03     148.866E-03
            4332            4627     136.741E-03     136.991E-03
            4332            4628     146.063E-03     146.816E-03
            4333            4610     144.333E-03     148.866E-03
            4333            4611     154.081E-03     158.388E-03
            4333            4628     146.063E-03     146.816E-03
            4333            4629     155.442E-03     156.928E-03
            4334            4611     154.081E-03     158.388E-03
            4334            4612     164.392E-03     168.389E-03
            4334            4629     155.442E-03     156.928E-03
            4334            4630     165.417E-03     167.514E-03
            4335             744     177.225E-03     179.392E-03
            4335             745     175.072E-03     178.572E-03
            4335            4612     164.392E-03     168.389E-03
            4335            4630     165.417E-03     167.514E-03
            4336             606     93.4889E-03     82.7162E-03
            4336             607     103.761E-03     116.205E-03
            4336            4613     41.9972E-03     35.4835E-03
            4336            4631     40.0503E-03     57.9255E-03
            4337            4613     41.9972E-03     35.4835E-03
            4337            4614     20.8315E-03     18.3891E-03
            4337            4631     40.0503E-03     57.9255E-03
            4337            4632     21.8055E-03     19.4157E-03
            4338            4614     20.8315E-03     18.3891E-03
            4338            4615     29.8127E-03     22.9530E-03
            4338            4632     21.8055E-03     19.4157E-03
            4338            4633     34.7951E-03     16.2994E-03
            4339            4615     29.8127E-03     22.9530E-03
            4339            4616     38.1339E-03     32.2400E-03
            4339            4633     34.7951E-03     16.2994E-03
            4339            4634     44.5346E-03     24.5930E-03
            4340            4616     38.1339E-03     32.2400E-03
            4340            4617     46.7452E-03     41.6518E-03
            4340            4634     44.5346E-03     24.5930E-03
            4340            4635     53.1868E-03     34.3370E-03
            4341            4617     46.7452E-03     41.6518E-03
            4341            4618     55.3994E-03     50.9583E-03
            4341            4635     53.1868E-03     34.3370E-03
            4341            4636     61.5692E-03     44.1263E-03
            4342            4618     55.3994E-03     50.9583E-03
            4342            4619     64.2049E-03     60.3528E-03
            4342            4636     61.5692E-03     44.1263E-03
            4342            4637     69.9767E-03     53.9705E-03
            4343            4619     64.2049E-03     60.3528E-03
            4343            4620     73.1443E-03     69.8499E-03
            4343            4637     69.9767E-03     53.9705E-03
            4343            4638     78.4499E-03     63.8896E-03
            4344            4620     73.1443E-03     69.8499E-03
            4344            4621     82.1365E-03     79.3656E-03
            4344            4638     78.4499E-03     63.8896E-03
            4344            4639     86.9591E-03     73.8571E-03
            4345            4621     82.1365E-03     79.3656E-03
            4345            4622     91.1679E-03     88.9144E-03
            4345            4639     86.9591E-03     73.8571E-03
            4345            4640     95.4815E-03     83.8265E-03
            4346            4622     91.1679E-03     88.9144E-03
            4346            4623     100.222E-03     98.4703E-03
            4346            4640     95.4815E-03     83.8265E-03
            4346            4641     104.002E-03     93.8037E-03
            4347            4623     100.222E-03     98.4703E-03
            4347            4624     109.302E-03     108.052E-03
            4347            4641     104.002E-03     93.8037E-03
            4347            4642     112.498E-03     103.745E-03
            4348            4624     109.302E-03     108.052E-03
            4348            4625     118.404E-03     117.646E-03
            4348            4642     112.498E-03     103.745E-03
            4348            4643     120.980E-03     113.675E-03
            4349            4625     118.404E-03     117.646E-03
            4349            4626     127.559E-03     127.290E-03
            4349            4643     120.980E-03     113.675E-03
            4349            4644     129.391E-03     123.531E-03
            4350            4626     127.559E-03     127.290E-03
            4350            4627     136.741E-03     136.991E-03
            4350            4644     129.391E-03     123.531E-03
            4350            4645     137.810E-03     133.352E-03
            4351            4627     136.741E-03     136.991E-03
            4351            4628     146.063E-03     146.816E-03
            4351            4645     137.810E-03     133.352E-03
            4351            4646     146.072E-03     143.075E-03
            4352            4628     146.063E-03     146.816E-03
            4352            4629     155.442E-03     156.928E-03
            4352            4646     146.072E-03     143.075E-03
            4352            4647     154.557E-03     152.828E-03
            4353            4629     155.442E-03     156.928E-03
            4353            4630     165.417E-03     167.514E-03
            4353            4647     154.557E-03     152.828E-03
            4353            4648     162.980E-03     162.665E-03
            4354             743     172.790E-03     174.077E-03
            4354             744     177.225E-03     179.392E-03
            4354            4630     165.417E-03     167.514E-03
            4354            4648     162.980E-03     162.665E-03
            4355              30     72.0702E-03     85.0202E-03
            4355             607     103.761E-03     116.205E-03
            4355             673     27.3991E-03     46.5220E-03
            4355            4631     40.0503E-03     57.9255E-03
            4356             673     27.3991E-03     46.5220E-03
            4356             674     15.2925E-03     15.0975E-03
            4356            4631     40.0503E-03     57.9255E-03
            4356            4632     21.8055E-03     19.4157E-03
            4357             674     15.2925E-03     15.0975E-03
            4357             675     22.6224E-03     12.4334E-03
            4357            4632     21.8055E-03     19.4157E-03
            4357            4633     34.7951E-03     16.2994E-03
            4358             675     22.6224E-03     12.4334E-03
            4358             676     32.9776E-03     21.2026E-03
            4358            4633     34.7951E-03     16.2994E-03
            4358            4634     44.5346E-03     24.5930E-03
            4359             676     32.9776E-03     21.2026E-03
            4359             677     42.3395E-03     31.2433E-03
            4359            4634     44.5346E-03     24.5930E-03
            4359            4635     53.1868E-03     34.3370E-03
            4360             677     42.3395E-03     31.2433E-03
            4360             678     51.5222E-03     41.3576E-03
            4360            4635     53.1868E-03     34.3370E-03
            4360            4636     61.5692E-03     44.1263E-03
            4361             678     51.5222E-03     41.3576E-03
            4361             679     60.6486E-03     51.5063E-03
            4361            4636     61.5692E-03     44.1263E-03
            4361            4637     69.9767E-03     53.9705E-03
            4362             679     60.6486E-03     51.5063E-03
            4362             680     69.8100E-03     61.6489E-03
            4362            4637     69.9767E-03     53.9705E-03
            4362            4638     78.4499E-03     63.8896E-03
            4363             680     69.8100E-03     61.6489E-03
            4363             681     78.9439E-03     71.8343E-03
            4363            4638     78.4499E-03     63.8896E-03
            4363            4639     86.9591E-03     73.8571E-03
            4364             681     78.9439E-03     71.8343E-03
            4364             682     88.0937E-03     81.9916E-03
            4364            4639     86.9591E-03     73.8571E-03
            4364            4640     95.4815E-03     83.8265E-03
            4365             682     88.0937E-03     81.9916E-03
            4365             683     97.1716E-03     92.1333E-03
            4365            4640     95.4815E-03     83.8265E-03
            4365            4641     104.002E-03     93.8037E-03
            4366             683     97.1716E-03     92.1333E-03
            4366             684     106.234E-03     102.203E-03
            4366            4641     104.002E-03     93.8037E-03
            4366            4642     112.498E-03     103.745E-03
            4367             684     106.234E-03     102.203E-03
            4367             685     115.165E-03     112.202E-03
            4367            4642     112.498E-03     103.745E-03
            4367            4643     120.980E-03     113.675E-03
            4368             685     115.165E-03     112.202E-03
            4368             686     124.063E-03     122.065E-03
            4368            4643     120.980E-03     113.675E-03
            4368            4644     129.391E-03     123.531E-03
            4369             686     124.063E-03     122.065E-03
            4369             687     132.755E-03     131.788E-03
            4369            4644     129.391E-03     123.531E-03
            4369            4645     137.810E-03     133.352E-03
            4370             687     132.755E-03     131.788E-03
            4370             688     141.513E-03     141.322E-03
            4370            4645     137.810E-03     133.352E-03
            4370            4646     146.072E-03     143.075E-03
            4371             688     141.513E-03     141.322E-03
            4371             689     150.051E-03     150.753E-03
            4371            4646     146.072E-03     143.075E-03
            4371            4647     154.557E-03     152.828E-03
            4372             689     150.051E-03     150.753E-03
            4372             690     159.303E-03     160.466E-03
            4372            4647     154.557E-03     152.828E-03
            4372            4648     162.980E-03     162.665E-03
            4373              31     169.045E-03     171.262E-03
            4373             690     159.303E-03     160.466E-03
            4373             743     172.790E-03     174.077E-03
            4373            4648     162.980E-03     162.665E-03
            4374              35     136.159E-03     139.211E-03
            4374             789     134.741E-03     138.330E-03
            4374             824     127.874E-03     130.572E-03
            4374            4649     123.045E-03     126.407E-03
            4375             824     127.874E-03     130.572E-03
            4375             825     120.427E-03     123.252E-03
            4375            4649     123.045E-03     126.407E-03
            4375            4650     114.675E-03     118.047E-03
            4376             825     120.427E-03     123.252E-03
            4376             826     113.785E-03     116.691E-03
            4376            4650     114.675E-03     118.047E-03
            4376            4651     107.442E-03     111.005E-03
            4377             826     113.785E-03     116.691E-03
            4377             827     107.379E-03     110.487E-03
            4377            4651     107.442E-03     111.005E-03
            4377            4652     101.095E-03     104.831E-03
            4378             827     107.379E-03     110.487E-03
            4378             828     101.236E-03     104.443E-03
            4378            4652     101.095E-03     104.831E-03
            4378            4653     95.0943E-03     99.0080E-03
            4379             828     101.236E-03     104.443E-03
            4379             829     95.1548E-03     98.4835E-03
            4379            4653     95.0943E-03     99.0080E-03
            4379            4654     89.3536E-03     93.3948E-03
            4380             829     95.1548E-03     98.4835E-03
            4380             830     89.1567E-03     92.5353E-03
            4380            4654     89.3536E-03     93.3948E-03
            4380            4655     83.7013E-03     87.8341E-03
            4381             830     89.1567E-03     92.5353E-03
            4381             831     83.1608E-03     86.5904E-03
            4381            4655     83.7013E-03     87.8341E-03
            4381            4656     78.1050E-03     82.2935E-03
            4382             831     83.1608E-03     86.5904E-03
            4382             832     77.1861E-03     80.6268E-03
            4382            4656     78.1050E-03     82.2935E-03
            4382            4657     72.5189E-03     76.7321E-03
            4383             832     77.1861E-03     80.6268E-03
            4383             833     71.2052E-03     74.6535E-03
            4383            4657     72.5189E-03     76.7321E-03
            4383            4658     66.9371E-03     71.1501E-03
            4384             833     71.2052E-03     74.6535E-03
            4384             834     65.2411E-03     68.6699E-03
            4384            4658     66.9371E-03     71.1501E-03
            4384            4659     61.3720E-03     65.5569E-03
            4385             834     65.2411E-03     68.6699E-03
            4385             835     59.2962E-03     62.6914E-03
            4385            4659     61.3720E-03     65.5569E-03
            4385            4660     55.8361E-03     59.9590E-03
            4386             835     59.2962E-03     62.6914E-03
            4386             836     53.4102E-03     56.7347E-03
            4386            4660     55.8361E-03     59.9590E-03
            4386            4661     50.3966E-03     54.4126E-03
            4387             836     53.4102E-03     56.7347E-03
            4387             837     47.6120E-03     50.8256E-03
            4387            4661     50.3966E-03     54.4126E-03
            4387            4662     45.0861E-03     48.9298E-03
            4388             837     47.6120E-03     50.8256E-03
            4388             838     41.9925E-03     45.0232E-03
            4388            4662     45.0861E-03     48.9298E-03
            4388            4663     40.0963E-03     43.6792E-03
            4389             838     41.9925E-03     45.0232E-03
            4389             839     36.6390E-03     39.3934E-03
            4389            4663     40.0963E-03     43.6792E-03
            4389            4664     35.4506E-03     38.6976E-03
            4390             839     36.6390E-03     39.3934E-03
            4390             840     31.8186E-03     34.1686E-03
            4390            4664     35.4506E-03     38.6976E-03
            4390            4665     31.8666E-03     34.7099E-03
            4391             840     31.8186E-03     34.1686E-03
            4391             841     28.2964E-03     29.9117E-03
            4391            4665     31.8666E-03     34.7099E-03
            4391            4666     28.7108E-03     31.8452E-03
            4392              33     22.0856E-03     23.0386E-03
            4392             841     28.2964E-03     29.9117E-03
            4392             842     23.3931E-03     24.6105E-03
            4392            4666     28.7108E-03     31.8452E-03
            4393             789     134.741E-03     138.330E-03
            4393             790     139.873E-03     142.502E-03
            4393            4649     123.045E-03     126.407E-03
            4393            4667     126.961E-03     130.536E-03
            4394            4649     123.045E-03     126.407E-03
            4394            4650     114.675E-03     118.047E-03
            4394            4667     126.961E-03     130.536E-03
            4394            4668     117.894E-03     121.569E-03
            4395            4650     114.675E-03     118.047E-03
            4395            4651     107.442E-03     111.005E-03
            4395            4668     117.894E-03     121.569E-03
            4395            4669     110.314E-03     113.974E-03
            4396            4651     107.442E-03     111.005E-03
            4396            4652     101.095E-03     104.831E-03
            4396            4669     110.314E-03     113.974E-03
            4396            4670     103.551E-03     107.244E-03
            4397            4652     101.095E-03     104.831E-03
            4397            4653     95.0943E-03     99.0080E-03
            4397            4670     103.551E-03     107.244E-03
            4397            4671     97.2856E-03     100.969E-03
            4398            4653     95.0943E-03     99.0080E-03
            4398            4654     89.3536E-03     93.3948E-03
            4398            4671     97.2856E-03     100.969E-03
            4398            4672     91.2409E-03     94.9427E-03
            4399            4654     89.3536E-03     93.3948E-03
            4399            4655     83.7013E-03     87.8341E-03
            4399            4672     91.2409E-03     94.9427E-03
            4399            4673     85.3369E-03     89.0411E-03
            4400            4655     83.7013E-03     87.8341E-03
            4400            4656     78.1050E-03     82.2935E-03
            4400            4673     85.3369E-03     89.0411E-03
            4400            4674     79.4839E-03     83.1922E-03
            4401            4656     78.1050E-03     82.2935E-03
            4401            4657     72.5189E-03     76.7321E-03
            4401            4674     79.4839E-03     83.1922E-03
            4401            4675     73.6620E-03     77.3641E-03
            4402            4657     72.5189E-03     76.7321E-03
            4402            4658     66.9371E-03     71.1501E-03
            4402            4675     73.6620E-03     77.3641E-03
            4402            4676     67.8544E-03     71.5420E-03
            4403            4658     66.9371E-03     71.1501E-03
            4403            4659     61.3720E-03     65.5569E-03
            4403            4676     67.8544E-03     71.5420E-03
            4403            4677     62.0632E-03     65.7252E-03
            4404            4659     61.3720E-03     65.5569E-03
            4404            4660     55.8361E-03     59.9590E-03
            4404            4677     62.0632E-03     65.7252E-03
            4404            4678     56.3101E-03     59.9349E-03
            4405            4660     55.8361E-03     59.9590E-03
            4405            4661     50.3966E-03     54.4126E-03
            4405            4678     56.3101E-03     59.9349E-03
            4405            4679     50.6163E-03     54.1853E-03
            4406            4661     50.3966E-03     54.4126E-03
            4406            4662     45.0861E-03     48.9298E-03
            4406            4679     50.6163E-03     54.1853E-03
            4406            4680     45.0463E-03     48.5538E-03
            4407            4662     45.0861E-03     48.9298E-03
            4407            4663     40.0963E-03     43.6792E-03
            4407            4680     45.0463E-03     48.5538E-03
            4407            4681     39.6620E-03     43.0995E-03
            4408            4663     40.0963E-03     43.6792E-03
            4408            4664     35.4506E-03     38.6976E-03
            4408            4681     39.6620E-03     43.0995E-03
            4408            4682     34.5785E-03     38.0056E-03
            4409            4664     35.4506E-03     38.6976E-03
            4409            4665     31.8666E-03     34.7099E-03
            4409            4682     34.5785E-03     38.0056E-03
            4409            4683     29.9281E-03     33.7430E-03
            4410            4665     31.8666E-03     34.7099E-03
            4410            4666     28.7108E-03     31.8452E-03
            4410            4683     29.9281E-03     33.7430E-03
            4410            4684     24.2443E-03     28.9094E-03
            4411             842     23.3931E-03     24.6105E-03
            4411             843     19.4994E-03     19.8388E-03
            4411            4666     28.7108E-03     31.8452E-03
            4411            4684     24.2443E-03     28.9094E-03
            4412             790     139.873E-03     142.502E-03
            4412             791     140.171E-03     142.912E-03
            4412            4667     126.961E-03     130.536E-03
            4412            4685     129.765E-03     133.007E-03
            4413            4667     126.961E-03     130.536E-03
            4413            4668     117.894E-03     121.569E-03
            4413            4685     129.765E-03     133.007E-03
            4413            4686     120.438E-03     124.102E-03
            4414            4668     117.894E-03     121.569E-03
            4414            4669     110.314E-03     113.974E-03
            4414            4686     120.438E-03     124.102E-03
            4414            4687     112.778E-03     116.405E-03
            4415            4669     110.314E-03     113.974E-03
            4415            4670     103.551E-03     107.244E-03
            4415            4687     112.778E-03     116.405E-03
            4415            4688     105.783E-03     109.328E-03
            4416            4670     103.551E-03     107.244E-03
            4416            4671     97.2856E-03     100.969E-03
            4416            4688     105.783E-03     109.328E-03
            4416            4689     99.2673E-03     102.716E-03
            4417            4671     97.2856E-03     100.969E-03
            4417            4672     91.2409E-03     94.9427E-03
            4417            4689     99.2673E-03     102.716E-03
            4417            4690     92.9921E-03     96.3513E-03
            4418            4672     91.2409E-03     94.9427E-03
            4418            4673     85.3369E-03     89.0411E-03
            4418            4690     92.9921E-03     96.3513E-03
            4418            4691     86.8539E-03     90.1511E-03
            4419            4673     85.3369E-03     89.0411E-03
            4419            4674     79.4839E-03     83.1922E-03
            4419            4691     86.8539E-03     90.1511E-03
            4419            4692     80.7920E-03     84.0389E-03
            4420            4674     79.4839E-03     83.1922E-03
            4420            4675     73.6620E-03     77.3641E-03
            4420            4692     80.7920E-03     84.0389E-03
            4420            4693     74.7710E-03     77.9827E-03
            4421            4675     73.6620E-03     77.3641E-03
            4421            4676     67.8544E-03     71.5420E-03
            4421            4693     74.7710E-03     77.9827E-03
            4421            4694     68.7784E-03     71.9628E-03
            4422            4676     67.8544E-03     71.5420E-03
            4422            4677     62.0632E-03     65.7252E-03
            4422            4694     68.7784E-03     71.9628E-03
            4422            4695     62.8100E-03     65.9745E-03
            4423            4677     62.0632E-03     65.7252E-03
            4423            4678     56.3101E-03     59.9349E-03
            4423            4695     62.8100E-03     65.9745E-03
            4423            4696     56.8719E-03     60.0288E-03
            4424            4678     56.3101E-03     59.9349E-03
            4424            4679     50.6163E-03     54.1853E-03
            4424            4696     56.8719E-03     60.0288E-03
            4424            4697     50.9766E-03     54.1452E-03
            4425            4679     50.6163E-03     54.1853E-03
            4425            4680     45.0463E-03     48.5538E-03
            4425            4697     50.9766E-03     54.1452E-03
            4425            4698     45.1594E-03     48.3670E-03
            4426            4680     45.0463E-03     48.5538E-03
            4426            4681     39.6620E-03     43.0995E-03
            4426            4698     45.1594E-03     48.3670E-03
            4426            4699     39.4161E-03     42.7323E-03
            4427            4681     39.6620E-03     43.0995E-03
            4427            4682     34.5785E-03     38.0056E-03
            4427            4699     39.4161E-03     42.7323E-03
            4427            4700     33.8629E-03     37.4303E-03
            4428            4682     34.5785E-03     38.0056E-03
            4428            4683     29.9281E-03     33.7430E-03
            4428            4700     33.8629E-03     37.4303E-03
            4428            4701     28.0828E-03     32.0915E-03
            4429            4683     29.9281E-03     33.7430E-03
            4429            4684     24.2443E-03     28.9094E-03
            4429            4701     28.0828E-03     32.0915E-03
            4429            4702     21.9140E-03     25.9300E-03
            4430             843     19.4994E-03     19.8388E-03
            4430             844     17.2741E-03     17.2108E-03
            4430            4684     24.2443E-03     28.9094E-03
            4430            4702     21.9140E-03     25.9300E-03
            4431             791     140.171E-03     142.912E-03
            4431             792     137.786E-03     140.917E-03
            4431            4685     129.765E-03     133.007E-03
            4431            4703     129.835E-03     133.133E-03
            4432            4685     129.765E-03     133.007E-03
            4432            4686     120.438E-03     124.102E-03
            4432            4703     129.835E-03     133.133E-03
            4432            4704     121.871E-03     125.279E-03
            4433            4686     120.438E-03     124.102E-03
            4433            4687     112.778E-03     116.405E-03
            4433            4704     121.871E-03     125.279E-03
            4433            4705     114.323E-03     117.781E-03
            4434            4687     112.778E-03     116.405E-03
            4434            4688     105.783E-03     109.328E-03
            4434            4705     114.323E-03     117.781E-03
            4434            4706     107.432E-03     110.702E-03
            4435            4688     105.783E-03     109.328E-03
            4435            4689     99.2673E-03     102.716E-03
            4435            4706     107.432E-03     110.702E-03
            4435            4707     100.784E-03     103.904E-03
            4436            4689     99.2673E-03     102.716E-03
            4436            4690     92.9921E-03     96.3513E-03
            4436            4707     100.784E-03     103.904E-03
            4436            4708     94.3757E-03     97.3464E-03
            4437            4690     92.9921E-03     96.3513E-03
            4437            4691     86.8539E-03     90.1511E-03
            4437            4708     94.3757E-03     97.3464E-03
            4437            4709     88.0764E-03     90.9365E-03
            4438            4691     86.8539E-03     90.1511E-03
            4438            4692     80.7920E-03     84.0389E-03
            4438            4709     88.0764E-03     90.9365E-03
            4438            4710     81.8650E-03     84.6439E-03
            4439            4692     80.7920E-03     84.0389E-03
            4439            4693     74.7710E-03     77.9827E-03
            4439            4710     81.8650E-03     84.6439E-03
            4439            4711     75.7049E-03     78.4280E-03
            4440            4693     74.7710E-03     77.9827E-03
            4440            4694     68.7784E-03     71.9628E-03
            4440            4711     75.7049E-03     78.4280E-03
            4440            4712     69.5839E-03     72.2722E-03
            4441            4694     68.7784E-03     71.9628E-03
            4441            4695     62.8100E-03     65.9745E-03
            4441            4712     69.5839E-03     72.2722E-03
            4441            4713     63.4951E-03     66.1732E-03
            4442            4695     62.8100E-03     65.9745E-03
            4442            4696     56.8719E-03     60.0288E-03
            4442            4713     63.4951E-03     66.1732E-03
            4442            4714     57.4296E-03     60.1237E-03
            4443            4696     56.8719E-03     60.0288E-03
            4443            4697     50.9766E-03     54.1452E-03
            4443            4714     57.4296E-03     60.1237E-03
            4443            4715     51.3940E-03     54.1574E-03
            4444            4697     50.9766E-03     54.1452E-03
            4444            4698     45.1594E-03     48.3670E-03
            4444            4715     51.3940E-03     54.1574E-03
            4444            4716     45.3669E-03     48.2647E-03
            4445            4698     45.1594E-03     48.3670E-03
            4445            4699     39.4161E-03     42.7323E-03
            4445            4716     45.3669E-03     48.2647E-03
            4445            4717     39.3857E-03     42.4988E-03
            4446            4699     39.4161E-03     42.7323E-03
            4446            4700     33.8629E-03     37.4303E-03
            4446            4717     39.3857E-03     42.4988E-03
            4446            4718     33.3138E-03     36.7847E-03
            4447            4700     33.8629E-03     37.4303E-03
            4447            4701     28.0828E-03     32.0915E-03
            4447            4718     33.3138E-03     36.7847E-03
            4447            4719     27.1509E-03     30.7905E-03
            4448            4701     28.0828E-03     32.0915E-03
            4448            4702     21.9140E-03     25.9300E-03
            4448            4719     27.1509E-03     30.7905E-03
            4448            4720     20.7588E-03     24.6389E-03
            4449             844     17.2741E-03     17.2108E-03
            4449             845     16.4926E-03     16.4684E-03
            4449            4702     21.9140E-03     25.9300E-03
            4449            4720     20.7588E-03     24.6389E-03
            4450             792     137.786E-03     140.917E-03
            4450             793     134.823E-03     137.520E-03
            4450            4703     129.835E-03     133.133E-03
            4450            4721     128.282E-03     131.530E-03
            4451            4703     129.835E-03     133.133E-03
            4451            4704     121.871E-03     125.279E-03
            4451            4721     128.282E-03     131.530E-03
            4451            4722     121.621E-03     124.861E-03
            4452            4704     121.871E-03     125.279E-03
            4452            4705     114.323E-03     117.781E-03
            4452            4722     121.621E-03     124.861E-03
            4452            4723     114.884E-03     117.923E-03
            4453            4705     114.323E-03     117.781E-03
            4453            4706     107.432E-03     110.702E-03
            4453            4723     114.884E-03     117.923E-03
            4453            4724     108.157E-03     111.042E-03
            4454            4706     107.432E-03     110.702E-03
            4454            4707     100.784E-03     103.904E-03
            4454            4724     108.157E-03     111.042E-03
            4454            4725     101.638E-03     104.293E-03
            4455            4707     100.784E-03     103.904E-03
            4455            4708     94.3757E-03     97.3464E-03
            4455            4725     101.638E-03     104.293E-03
            4455            4726     95.1821E-03     97.6830E-03
            4456            4708     94.3757E-03     97.3464E-03
            4456            4709     88.0764E-03     90.9365E-03
            4456            4726     95.1821E-03     97.6830E-03
            4456            4727     88.8423E-03     91.2112E-03
            4457            4709     88.0764E-03     90.9365E-03
            4457            4710     81.8650E-03     84.6439E-03
            4457            4727     88.8423E-03     91.2112E-03
            4457            4728     82.5606E-03     84.8421E-03
            4458            4710     81.8650E-03     84.6439E-03
            4458            4711     75.7049E-03     78.4280E-03
            4458            4728     82.5606E-03     84.8421E-03
            4458            4729     76.3418E-03     78.5626E-03
            4459            4711     75.7049E-03     78.4280E-03
            4459            4712     69.5839E-03     72.2722E-03
            4459            4729     76.3418E-03     78.5626E-03
            4459            4730     70.1674E-03     72.3559E-03
            4460            4712     69.5839E-03     72.2722E-03
            4460            4713     63.4951E-03     66.1732E-03
            4460            4730     70.1674E-03     72.3559E-03
            4460            4731     64.0266E-03     66.2081E-03
            4461            4713     63.4951E-03     66.1732E-03
            4461            4714     57.4296E-03     60.1237E-03
            4461            4731     64.0266E-03     66.2081E-03
            4461            4732     57.9143E-03     60.1336E-03
            4462            4714     57.4296E-03     60.1237E-03
            4462            4715     51.3940E-03     54.1574E-03
            4462            4732     57.9143E-03     60.1336E-03
            4462            4733     51.8038E-03     54.1127E-03
            4463            4715     51.3940E-03     54.1574E-03
            4463            4716     45.3669E-03     48.2647E-03
            4463            4733     51.8038E-03     54.1127E-03
            4463            4734     45.6861E-03     48.1968E-03
            4464            4716     45.3669E-03     48.2647E-03
            4464            4717     39.3857E-03     42.4988E-03
            4464            4734     45.6861E-03     48.1968E-03
            4464            4735     39.5053E-03     42.3369E-03
            4465            4717     39.3857E-03     42.4988E-03
            4465            4718     33.3138E-03     36.7847E-03
            4465            4735     39.5053E-03     42.3369E-03
            4465            4736     33.2551E-03     36.3619E-03
            4466            4718     33.3138E-03     36.7847E-03
            4466            4719     27.1509E-03     30.7905E-03
            4466            4736     33.2551E-03     36.3619E-03
            4466            4737     26.8741E-03     30.3813E-03
            4467            4719     27.1509E-03     30.7905E-03
            4467            4720     20.7588E-03     24.6389E-03
            4467            4737     26.8741E-03     30.3813E-03
            4467            4738     20.7370E-03     24.2166E-03
            4468             845     16.4926E-03     16.4684E-03
            4468             846     16.9498E-03     16.6797E-03
            4468            4720     20.7588E-03     24.6389E-03
            4468            4738     20.7370E-03     24.2166E-03
            4469             793     134.823E-03     137.520E-03
            4469             794     130.907E-03     133.662E-03
            4469            4721     128.282E-03     131.530E-03
            4469            4739     125.826E-03     128.699E-03
            4470            4721     128.282E-03     131.530E-03
            4470            4722     121.621E-03     124.861E-03
            4470            4739     125.826E-03     128.699E-03
            4470            4740     120.220E-03     122.980E-03
            4471            4722     121.621E-03     124.861E-03
            4471            4723     114.884E-03     117.923E-03
            4471            4740     120.220E-03     122.980E-03
            4471            4741     114.194E-03     116.724E-03
            4472            4723     114.884E-03     117.923E-03
            4472            4724     108.157E-03     111.042E-03
            4472            4741     114.194E-03     116.724E-03
            4472            4742     107.963E-03     110.219E-03
            4473            4724     108.157E-03     111.042E-03
            4473            4725     101.638E-03     104.293E-03
            4473            4742     107.963E-03     110.219E-03
            4473            4743     101.615E-03     103.696E-03
            4474            4725     101.638E-03     104.293E-03
            4474            4726     95.1821E-03     97.6830E-03
            4474            4743     101.615E-03     103.696E-03
            4474            4744     95.3087E-03     97.2279E-03
            4475            4726     95.1821E-03     97.6830E-03
            4475            4727     88.8423E-03     91.2112E-03
            4475            4744     95.3087E-03     97.2279E-03
            4475            4745     89.0163E-03     90.8375E-03
            4476            4727     88.8423E-03     91.2112E-03
            4476            4728     82.5606E-03     84.8421E-03
            4476            4745     89.0163E-03     90.8375E-03
            4476            4746     82.7862E-03     84.5324E-03
            4477            4728     82.5606E-03     84.8421E-03
            4477            4729     76.3418E-03     78.5626E-03
            4477            4746     82.7862E-03     84.5324E-03
            4477            4747     76.5986E-03     78.3012E-03
            4478            4729     76.3418E-03     78.5626E-03
            4478            4730     70.1674E-03     72.3559E-03
            4478            4747     76.5986E-03     78.3012E-03
            4478            4748     70.4580E-03     72.1353E-03
            4479            4730     70.1674E-03     72.3559E-03
            4479            4731     64.0266E-03     66.2081E-03
            4479            4748     70.4580E-03     72.1353E-03
            4479            4749     64.3558E-03     66.0337E-03
            4480            4731     64.0266E-03     66.2081E-03
            4480            4732     57.9143E-03     60.1336E-03
            4480            4749     64.3558E-03     66.0337E-03
            4480            4750     58.2736E-03     59.9831E-03
            4481            4732     57.9143E-03     60.1336E-03
            4481            4733     51.8038E-03     54.1127E-03
            4481            4750     58.2736E-03     59.9831E-03
            4481            4751     52.2020E-03     54.0094E-03
            4482            4733     51.8038E-03     54.1127E-03
            4482            4734     45.6861E-03     48.1968E-03
            4482            4751     52.2020E-03     54.0094E-03
            4482            4752     46.0950E-03     48.0907E-03
            4483            4734     45.6861E-03     48.1968E-03
            4483            4735     39.5053E-03     42.3369E-03
            4483            4752     46.0950E-03     48.0907E-03
            4483            4753     39.9038E-03     42.2730E-03
            4484            4735     39.5053E-03     42.3369E-03
            4484            4736     33.2551E-03     36.3619E-03
            4484            4753     39.9038E-03     42.2730E-03
            4484            4754     33.6094E-03     36.4941E-03
            4485            4736     33.2551E-03     36.3619E-03
            4485            4737     26.8741E-03     30.3813E-03
            4485            4754     33.6094E-03     36.4941E-03
            4485            4755     27.3605E-03     30.4588E-03
            4486            4737     26.8741E-03     30.3813E-03
            4486            4738     20.7370E-03     24.2166E-03
            4486            4755     27.3605E-03     30.4588E-03
            4486            4756     21.4012E-03     24.7085E-03
            4487             846     16.9498E-03     16.6797E-03
            4487             847     18.1765E-03     18.4873E-03
            4487            4738     20.7370E-03     24.2166E-03
            4487            4756     21.4012E-03     24.7085E-03
            4488             794     130.907E-03     133.662E-03
            4488             795     126.527E-03     128.778E-03
            4488            4739     125.826E-03     128.699E-03
            4488            4757     122.522E-03     124.753E-03
            4489            4739     125.826E-03     128.699E-03
            4489            4740     120.220E-03     122.980E-03
            4489            4757     122.522E-03     124.753E-03
            4489            4758     117.834E-03     119.779E-03
            4490            4740     120.220E-03     122.980E-03
            4490            4741     114.194E-03     116.724E-03
            4490            4758     117.834E-03     119.779E-03
            4490            4759     112.475E-03     114.151E-03
            4491            4741     114.194E-03     116.724E-03
            4491            4742     107.963E-03     110.219E-03
            4491            4759     112.475E-03     114.151E-03
            4491            4760     106.708E-03     108.187E-03
            4492            4742     107.963E-03     110.219E-03
            4492            4743     101.615E-03     103.696E-03
            4492            4760     106.708E-03     108.187E-03
            4492            4761     100.733E-03     102.073E-03
            4493            4743     101.615E-03     103.696E-03
            4493            4744     95.3087E-03     97.2279E-03
            4493            4761     100.733E-03     102.073E-03
            4493            4762     94.6568E-03     95.9237E-03
            4494            4744     95.3087E-03     97.2279E-03
            4494            4745     89.0163E-03     90.8375E-03
            4494            4762     94.6568E-03     95.9237E-03
            4494            4763     88.5743E-03     89.7874E-03
            4495            4745     89.0163E-03     90.8375E-03
            4495            4746     82.7862E-03     84.5324E-03
            4495            4763     88.5743E-03     89.7874E-03
            4495            4764     82.4968E-03     83.6869E-03
            4496            4746     82.7862E-03     84.5324E-03
            4496            4747     76.5986E-03     78.3012E-03
            4496            4764     82.4968E-03     83.6869E-03
            4496            4765     76.4543E-03     77.6276E-03
            4497            4747     76.5986E-03     78.3012E-03
            4497            4748     70.4580E-03     72.1353E-03
            4497            4765     76.4543E-03     77.6276E-03
            4497            4766     70.4435E-03     71.6123E-03
            4498            4748     70.4580E-03     72.1353E-03
            4498            4749     64.3558E-03     66.0337E-03
            4498            4766     70.4435E-03     71.6123E-03
            4498            4767     64.4653E-03     65.6375E-03
            4499            4749     64.3558E-03     66.0337E-03
            4499            4750     58.2736E-03     59.9831E-03
            4499            4767     64.4653E-03     65.6375E-03
            4499            4768     58.5166E-03     59.7090E-03
            4500            4750     58.2736E-03     59.9831E-03
            4500            4751     52.2020E-03     54.0094E-03
            4500            4768     58.5166E-03     59.7090E-03
            4500            4769     52.5763E-03     53.8287E-03
            4501            4751     52.2020E-03     54.0094E-03
            4501            4752     46.0950E-03     48.0907E-03
            4501            4769     52.5763E-03     53.8287E-03
            4501            4770     46.6308E-03     48.0225E-03
            4502            4752     46.0950E-03     48.0907E-03
            4502            4753     39.9038E-03     42.2730E-03
            4502            4770     46.6308E-03     48.0225E-03
            4502            4771     40.6251E-03     42.3156E-03
            4503            4753     39.9038E-03     42.2730E-03
            4503            4754     33.6094E-03     36.4941E-03
            4503            4771     40.6251E-03     42.3156E-03
            4503            4772     34.5013E-03     36.8992E-03
            4504            4754     33.6094E-03     36.4941E-03
            4504            4755     27.3605E-03     30.4588E-03
            4504            4772     34.5013E-03     36.8992E-03
            4504            4773     28.4062E-03     31.5608E-03
            4505            4755     27.3605E-03     30.4588E-03
            4505            4756     21.4012E-03     24.7085E-03
            4505            4773     28.4062E-03     31.5608E-03
            4505            4774     23.0117E-03     25.8221E-03
            4506             847     18.1765E-03     18.4873E-03
            4506             848     20.2133E-03     20.3091E-03
            4506            4756     21.4012E-03     24.7085E-03
            4506            4774     23.0117E-03     25.8221E-03
            4507             795     126.527E-03     128.778E-03
            4507             796     121.535E-03     122.651E-03
            4507            4757     122.522E-03     124.753E-03
            4507            4775     118.551E-03     119.415E-03
            4508            4757     122.522E-03     124.753E-03
            4508            4758     117.834E-03     119.779E-03
            4508            4775     118.551E-03     119.415E-03
            4508            4776     114.503E-03     115.172E-03
            4509            4758     117.834E-03     119.779E-03
            4509            4759     112.475E-03     114.151E-03
            4509            4776     114.503E-03     115.172E-03
            4509            4777     109.763E-03     110.282E-03
            4510            4759     112.475E-03     114.151E-03
            4510            4760     106.708E-03     108.187E-03
            4510            4777     109.763E-03     110.282E-03
            4510            4778     104.505E-03     105.011E-03
            4511            4760     106.708E-03     108.187E-03
            4511            4761     100.733E-03     102.073E-03
            4511            4778     104.505E-03     105.011E-03
            4511            4779     98.9843E-03     99.5025E-03
            4512            4761     100.733E-03     102.073E-03
            4512            4762     94.6568E-03     95.9237E-03
            4512            4779     98.9843E-03     99.5025E-03
            4512            4780     93.3020E-03     93.8525E-03
            4513            4762     94.6568E-03     95.9237E-03
            4513            4763     88.5743E-03     89.7874E-03
            4513            4780     93.3020E-03     93.8525E-03
            4513            4781     87.5414E-03     88.1364E-03
            4514            4763     88.5743E-03     89.7874E-03
            4514            4764     82.4968E-03     83.6869E-03
            4514            4781     87.5414E-03     88.1364E-03
            4514            4782     81.7537E-03     82.3811E-03
            4515            4764     82.4968E-03     83.6869E-03
            4515            4765     76.4543E-03     77.6276E-03
            4515            4782     81.7537E-03     82.3811E-03
            4515            4783     75.9567E-03     76.6173E-03
            4516            4765     76.4543E-03     77.6276E-03
            4516            4766     70.4435E-03     71.6123E-03
            4516            4783     75.9567E-03     76.6173E-03
            4516            4784     70.1730E-03     70.8536E-03
            4517            4766     70.4435E-03     71.6123E-03
            4517            4767     64.4653E-03     65.6375E-03
            4517            4784     70.1730E-03     70.8536E-03
            4517            4785     64.4073E-03     65.1012E-03
            4518            4767     64.4653E-03     65.6375E-03
            4518            4768     58.5166E-03     59.7090E-03
            4518            4785     64.4073E-03     65.1012E-03
            4518            4786     58.6701E-03     59.3726E-03
            4519            4768     58.5166E-03     59.7090E-03
            4519            4769     52.5763E-03     53.8287E-03
            4519            4786     58.6701E-03     59.3726E-03
            4519            4787     52.9657E-03     53.6722E-03
            4520            4769     52.5763E-03     53.8287E-03
            4520            4770     46.6308E-03     48.0225E-03
            4520            4787     52.9657E-03     53.6722E-03
            4520            4788     47.2977E-03     48.0481E-03
            4521            4770     46.6308E-03     48.0225E-03
            4521            4771     40.6251E-03     42.3156E-03
            4521            4788     47.2977E-03     48.0481E-03
            4521            4789     41.6664E-03     42.5464E-03
            4522            4771     40.6251E-03     42.3156E-03
            4522            4772     34.5013E-03     36.8992E-03
            4522            4789     41.6664E-03     42.5464E-03
            4522            4790     36.0368E-03     37.3694E-03
            4523            4772     34.5013E-03     36.8992E-03
            4523            4773     28.4062E-03     31.5608E-03
            4523            4790     36.0368E-03     37.3694E-03
            4523            4791     30.3283E-03     33.0576E-03
            4524            4773     28.4062E-03     31.5608E-03
            4524            4774     23.0117E-03     25.8221E-03
            4524            4791     30.3283E-03     33.0576E-03
            4524            4792     25.1767E-03     28.9362E-03
            4525             848     20.2133E-03     20.3091E-03
            4525             849     23.1400E-03     24.3488E-03
            4525            4774     23.0117E-03     25.8221E-03
            4525            4792     25.1767E-03     28.9362E-03
            4526             796     121.535E-03     122.651E-03
            4526             797     116.264E-03     114.810E-03
            4526            4775     118.551E-03     119.415E-03
            4526            4793     113.786E-03     112.449E-03
            4527            4775     118.551E-03     119.415E-03
            4527            4776     114.503E-03     115.172E-03
            4527            4793     113.786E-03     112.449E-03
            4527            4794     110.321E-03     109.203E-03
            4528            4776     114.503E-03     115.172E-03
            4528            4777     109.763E-03     110.282E-03
            4528            4794     110.321E-03     109.203E-03
            4528            4795     106.117E-03     105.308E-03
            4529            4777     109.763E-03     110.282E-03
            4529            4778     104.505E-03     105.011E-03
            4529            4795     106.117E-03     105.308E-03
            4529            4796     101.500E-03     100.950E-03
            4530            4778     104.505E-03     105.011E-03
            4530            4779     98.9843E-03     99.5025E-03
            4530            4796     101.500E-03     100.950E-03
            4530            4797     96.5443E-03     96.2216E-03
            4531            4779     98.9843E-03     99.5025E-03
            4531            4780     93.3020E-03     93.8525E-03
            4531            4797     96.5443E-03     96.2216E-03
            4531            4798     91.3899E-03     91.2527E-03
            4532            4780     93.3020E-03     93.8525E-03
            4532            4781     87.5414E-03     88.1364E-03
            4532            4798     91.3899E-03     91.2527E-03
            4532            4799     86.0908E-03     86.0876E-03
            4533            4781     87.5414E-03     88.1364E-03
            4533            4782     81.7537E-03     82.3811E-03
            4533            4799     86.0908E-03     86.0876E-03
            4533            4800     80.6983E-03     80.8064E-03
            4534            4782     81.7537E-03     82.3811E-03
            4534            4783     75.9567E-03     76.6173E-03
            4534            4800     80.6983E-03     80.8064E-03
            4534            4801     75.2511E-03     75.4339E-03
            4535            4783     75.9567E-03     76.6173E-03
            4535            4784     70.1730E-03     70.8536E-03
            4535            4801     75.2511E-03     75.4339E-03
            4535            4802     69.7688E-03     70.0109E-03
            4536            4784     70.1730E-03     70.8536E-03
            4536            4785     64.4073E-03     65.1012E-03
            4536            4802     69.7688E-03     70.0109E-03
            4536            4803     64.2856E-03     64.5604E-03
            4537            4785     64.4073E-03     65.1012E-03
            4537            4786     58.6701E-03     59.3726E-03
            4537            4803     64.2856E-03     64.5604E-03
            4537            4804     58.8156E-03     59.1004E-03
            4538            4786     58.6701E-03     59.3726E-03
            4538            4787     52.9657E-03     53.6722E-03
            4538            4804     58.8156E-03     59.1004E-03
            4538            4805     53.4114E-03     53.6699E-03
            4539            4787     52.9657E-03     53.6722E-03
            4539            4788     47.2977E-03     48.0481E-03
            4539            4805     53.4114E-03     53.6699E-03
            4539            4806     48.0902E-03     48.2838E-03
            4540            4788     47.2977E-03     48.0481E-03
            4540            4789     41.6664E-03     42.5464E-03
            4540            4806     48.0902E-03     48.2838E-03
            4540            4807     42.9683E-03     43.0596E-03
            4541            4789     41.6664E-03     42.5464E-03
            4541            4790     36.0368E-03     37.3694E-03
            4541            4807     42.9683E-03     43.0596E-03
            4541            4808     38.0380E-03     38.0908E-03
            4542            4790     36.0368E-03     37.3694E-03
            4542            4791     30.3283E-03     33.0576E-03
            4542            4808     38.0380E-03     38.0908E-03
            4542            4809     33.5093E-03     34.0448E-03
            4543            4791     30.3283E-03     33.0576E-03
            4543            4792     25.1767E-03     28.9362E-03
            4543            4809     33.5093E-03     34.0448E-03
            4543            4810     28.9424E-03     31.6730E-03
            4544             849     23.1400E-03     24.3488E-03
            4544             850     24.5851E-03     29.4546E-03
            4544            4792     25.1767E-03     28.9362E-03
            4544            4810     28.9424E-03     31.6730E-03
            4545             797     116.264E-03     114.810E-03
            4545             798     103.746E-03     104.090E-03
            4545            4793     113.786E-03     112.449E-03
            4545            4811     98.2866E-03     98.5321E-03
            4546            4793     113.786E-03     112.449E-03
            4546            4794     110.321E-03     109.203E-03
            4546            4811     98.2866E-03     98.5321E-03
            4546            4812     93.2078E-03     93.8282E-03
            4547            4794     110.321E-03     109.203E-03
            4547            4795     106.117E-03     105.308E-03
            4547            4812     93.2078E-03     93.8282E-03
            4547            4813     88.6428E-03     89.5415E-03
            4548            4795     106.117E-03     105.308E-03
            4548            4796     101.500E-03     100.950E-03
            4548            4813     88.6428E-03     89.5415E-03
            4548            4814     84.0979E-03     85.3706E-03
            4549            4796     101.500E-03     100.950E-03
            4549            4797     96.5443E-03     96.2216E-03
            4549            4814     84.0979E-03     85.3706E-03
            4549            4815     79.6813E-03     81.1765E-03
            4550            4797     96.5443E-03     96.2216E-03
            4550            4798     91.3899E-03     91.2527E-03
            4550            4815     79.6813E-03     81.1765E-03
            4550            4816     75.2099E-03     76.9267E-03
            4551            4798     91.3899E-03     91.2527E-03
            4551            4799     86.0908E-03     86.0876E-03
            4551            4816     75.2099E-03     76.9267E-03
            4551            4817     70.7493E-03     72.5886E-03
            4552            4799     86.0908E-03     86.0876E-03
            4552            4800     80.6983E-03     80.8064E-03
            4552            4817     70.7493E-03     72.5886E-03
            4552            4818     66.2308E-03     68.1817E-03
            4553            4800     80.6983E-03     80.8064E-03
            4553            4801     75.2511E-03     75.4339E-03
            4553            4818     66.2308E-03     68.1817E-03
            4553            4819     61.6949E-03     63.7013E-03
            4554            4801     75.2511E-03     75.4339E-03
            4554            4802     69.7688E-03     70.0109E-03
            4554            4819     61.6949E-03     63.7013E-03
            4554            4820     57.1254E-03     59.1797E-03
            4555            4802     69.7688E-03     70.0109E-03
            4555            4803     64.2856E-03     64.5604E-03
            4555            4820     57.1254E-03     59.1797E-03
            4555            4821     52.5554E-03     54.6188E-03
            4556            4803     64.2856E-03     64.5604E-03
            4556            4804     58.8156E-03     59.1004E-03
            4556            4821     52.5554E-03     54.6188E-03
            4556            4822     48.0025E-03     50.0556E-03
            4557            4804     58.8156E-03     59.1004E-03
            4557            4805     53.4114E-03     53.6699E-03
            4557            4822     48.0025E-03     50.0556E-03
            4557            4823     43.5157E-03     45.5040E-03
            4558            4805     53.4114E-03     53.6699E-03
            4558            4806     48.0902E-03     48.2838E-03
            4558            4823     43.5157E-03     45.5040E-03
            4558            4824     39.1506E-03     41.0127E-03
            4559            4806     48.0902E-03     48.2838E-03
            4559            4807     42.9683E-03     43.0596E-03
            4559            4824     39.1506E-03     41.0127E-03
            4559            4825     35.0203E-03     36.6605E-03
            4560            4807     42.9683E-03     43.0596E-03
            4560            4808     38.0380E-03     38.0908E-03
            4560            4825     35.0203E-03     36.6605E-03
            4560            4826     31.2587E-03     32.5405E-03
            4561            4808     38.0380E-03     38.0908E-03
            4561            4809     33.5093E-03     34.0448E-03
            4561            4826     31.2587E-03     32.5405E-03
            4561            4827     28.1772E-03     29.1044E-03
            4562            4809     33.5093E-03     34.0448E-03
            4562            4810     28.9424E-03     31.6730E-03
            4562            4827     28.1772E-03     29.1044E-03
            4562            4828     26.3036E-03     27.2901E-03
            4563             850     24.5851E-03     29.4546E-03
            4563             851     21.7367E-03     25.0521E-03
            4563            4810     28.9424E-03     31.6730E-03
            4563            4828     26.3036E-03     27.2901E-03
            4564             798     103.746E-03     104.090E-03
            4564             799     96.4081E-03     99.9238E-03
            4564            4811     98.2866E-03     98.5321E-03
            4564            4829     86.4229E-03     89.6891E-03
            4565            4811     98.2866E-03     98.5321E-03
            4565            4812     93.2078E-03     93.8282E-03
            4565            4829     86.4229E-03     89.6891E-03
            4565            4830     79.6122E-03     82.8396E-03
            4566            4812     93.2078E-03     93.8282E-03
            4566            4813     88.6428E-03     89.5415E-03
            4566            4830     79.6122E-03     82.8396E-03
            4566            4831     73.9872E-03     77.3241E-03
            4567            4813     88.6428E-03     89.5415E-03
            4567            4814     84.0979E-03     85.3706E-03
            4567            4831     73.9872E-03     77.3241E-03
            4567            4832     69.2403E-03     72.6854E-03
            4568            4814     84.0979E-03     85.3706E-03
            4568            4815     79.6813E-03     81.1765E-03
            4568            4832     69.2403E-03     72.6854E-03
            4568            4833     64.8751E-03     68.4394E-03
            4569            4815     79.6813E-03     81.1765E-03
            4569            4816     75.2099E-03     76.9267E-03
            4569            4833     64.8751E-03     68.4394E-03
            4569            4834     60.7810E-03     64.4308E-03
            4570            4816     75.2099E-03     76.9267E-03
            4570            4817     70.7493E-03     72.5886E-03
            4570            4834     60.7810E-03     64.4308E-03
            4570            4835     56.7944E-03     60.5081E-03
            4571            4817     70.7493E-03     72.5886E-03
            4571            4818     66.2308E-03     68.1817E-03
            4571            4835     56.7944E-03     60.5081E-03
            4571            4836     52.8743E-03     56.6263E-03
            4572            4818     66.2308E-03     68.1817E-03
            4572            4819     61.6949E-03     63.7013E-03
            4572            4836     52.8743E-03     56.6263E-03
            4572            4837     48.9724E-03     52.7428E-03
            4573            4819     61.6949E-03     63.7013E-03
            4573            4820     57.1254E-03     59.1797E-03
            4573            4837     48.9724E-03     52.7428E-03
            4573            4838     45.0790E-03     48.8502E-03
            4574            4820     57.1254E-03     59.1797E-03
            4574            4821     52.5554E-03     54.6188E-03
            4574            4838     45.0790E-03     48.8502E-03
            4574            4839     41.1977E-03     44.9506E-03
            4575            4821     52.5554E-03     54.6188E-03
            4575            4822     48.0025E-03     50.0556E-03
            4575            4839     41.1977E-03     44.9506E-03
            4575            4840     37.3362E-03     41.0474E-03
            4576            4822     48.0025E-03     50.0556E-03
            4576            4823     43.5157E-03     45.5040E-03
            4576            4840     37.3362E-03     41.0474E-03
            4576            4841     33.5417E-03     37.1802E-03
            4577            4823     43.5157E-03     45.5040E-03
            4577            4824     39.1506E-03     41.0127E-03
            4577            4841     33.5417E-03     37.1802E-03
            4577            4842     29.8404E-03     33.3599E-03
            4578            4824     39.1506E-03     41.0127E-03
            4578            4825     35.0203E-03     36.6605E-03
            4578            4842     29.8404E-03     33.3599E-03
            4578            4843     26.3729E-03     29.7107E-03
            4579            4825     35.0203E-03     36.6605E-03
            4579            4826     31.2587E-03     32.5405E-03
            4579            4843     26.3729E-03     29.7107E-03
            4579            4844     23.1759E-03     26.2683E-03
            4580            4826     31.2587E-03     32.5405E-03
            4580            4827     28.1772E-03     29.1044E-03
            4580            4844     23.1759E-03     26.2683E-03
            4580            4845     20.8248E-03     23.5603E-03
            4581            4827     28.1772E-03     29.1044E-03
            4581            4828     26.3036E-03     27.2901E-03
            4581            4845     20.8248E-03     23.5603E-03
            4581            4846     19.2796E-03     21.8727E-03
            4582             851     21.7367E-03     25.0521E-03
            4582             852     16.9889E-03     17.1903E-03
            4582            4828     26.3036E-03     27.2901E-03
            4582            4846     19.2796E-03     21.8727E-03
            4583             799     96.4081E-03     99.9238E-03
            4583             800     99.8824E-03     101.990E-03
            4583            4829     86.4229E-03     89.6891E-03
            4583            4847     88.8961E-03     91.9048E-03
            4584            4829     86.4229E-03     89.6891E-03
            4584            4830     79.6122E-03     82.8396E-03
            4584            4847     88.8961E-03     91.9048E-03
            4584            4848     81.6291E-03     84.7647E-03
            4585            4830     79.6122E-03     82.8396E-03
            4585            4831     73.9872E-03     77.3241E-03
            4585            4848     81.6291E-03     84.7647E-03
            4585            4849     75.8303E-03     78.9843E-03
            4586            4831     73.9872E-03     77.3241E-03
            4586            4832     69.2403E-03     72.6854E-03
            4586            4849     75.8303E-03     78.9843E-03
            4586            4850     70.8580E-03     74.0472E-03
            4587            4832     69.2403E-03     72.6854E-03
            4587            4833     64.8751E-03     68.4394E-03
            4587            4850     70.8580E-03     74.0472E-03
            4587            4851     66.3775E-03     69.5620E-03
            4588            4833     64.8751E-03     68.4394E-03
            4588            4834     60.7810E-03     64.4308E-03
            4588            4851     66.3775E-03     69.5620E-03
            4588            4852     62.1237E-03     65.3232E-03
            4589            4834     60.7810E-03     64.4308E-03
            4589            4835     56.7944E-03     60.5081E-03
            4589            4852     62.1237E-03     65.3232E-03
            4589            4853     58.0088E-03     61.2082E-03
            4590            4835     56.7944E-03     60.5081E-03
            4590            4836     52.8743E-03     56.6263E-03
            4590            4853     58.0088E-03     61.2082E-03
            4590            4854     53.9437E-03     57.1468E-03
            4591            4836     52.8743E-03     56.6263E-03
            4591            4837     48.9724E-03     52.7428E-03
            4591            4854     53.9437E-03     57.1468E-03
            4591            4855     49.9071E-03     53.1057E-03
            4592            4837     48.9724E-03     52.7428E-03
            4592            4838     45.0790E-03     48.8502E-03
            4592            4855     49.9071E-03     53.1057E-03
            4592            4856     45.8793E-03     49.0687E-03
            4593            4838     45.0790E-03     48.8502E-03
            4593            4839     41.1977E-03     44.9506E-03
            4593            4856     45.8793E-03     49.0687E-03
            4593            4857     41.8610E-03     45.0335E-03
            4594            4839     41.1977E-03     44.9506E-03
            4594            4840     37.3362E-03     41.0474E-03
            4594            4857     41.8610E-03     45.0335E-03
            4594            4858     37.8681E-03     41.0144E-03
            4595            4840     37.3362E-03     41.0474E-03
            4595            4841     33.5417E-03     37.1802E-03
            4595            4858     37.8681E-03     41.0144E-03
            4595            4859     33.9189E-03     37.0236E-03
            4596            4841     33.5417E-03     37.1802E-03
            4596            4842     29.8404E-03     33.3599E-03
            4596            4859     33.9189E-03     37.0236E-03
            4596            4860     30.0673E-03     33.1178E-03
            4597            4842     29.8404E-03     33.3599E-03
            4597            4843     26.3729E-03     29.7107E-03
            4597            4860     30.0673E-03     33.1178E-03
            4597            4861     26.3758E-03     29.3456E-03
            4598            4843     26.3729E-03     29.7107E-03
            4598            4844     23.1759E-03     26.2683E-03
            4598            4861     26.3758E-03     29.3456E-03
            4598            4862     22.9554E-03     25.8374E-03
            4599            4844     23.1759E-03     26.2683E-03
            4599            4845     20.8248E-03     23.5603E-03
            4599            4862     22.9554E-03     25.8374E-03
            4599            4863     20.0704E-03     22.9602E-03
            4600            4845     20.8248E-03     23.5603E-03
            4600            4846     19.2796E-03     21.8727E-03
            4600            4863     20.0704E-03     22.9602E-03
            4600            4864     16.7412E-03     19.8327E-03
            4601             852     16.9889E-03     17.1903E-03
            4601             853     14.1183E-03     14.0781E-03
            4601            4846     19.2796E-03     21.8727E-03
            4601            4864     16.7412E-03     19.8327E-03
            4602             800     99.8824E-03     101.990E-03
            4602             801     99.1872E-03     101.133E-03
            4602            4847     88.8961E-03     91.9048E-03
            4602            4865     90.5560E-03     92.9832E-03
            4603            4847     88.8961E-03     91.9048E-03
            4603            4848     81.6291E-03     84.7647E-03
            4603            4865     90.5560E-03     92.9832E-03
            4603            4866     83.1989E-03     86.0651E-03
            4604            4848     81.6291E-03     84.7647E-03
            4604            4849     75.8303E-03     78.9843E-03
            4604            4866     83.1989E-03     86.0651E-03
            4604            4867     77.4767E-03     80.3664E-03
            4605            4849     75.8303E-03     78.9843E-03
            4605            4850     70.8580E-03     74.0472E-03
            4605            4867     77.4767E-03     80.3664E-03
            4605            4868     72.4207E-03     75.2772E-03
            4606            4850     70.8580E-03     74.0472E-03
            4606            4851     66.3775E-03     69.5620E-03
            4606            4868     72.4207E-03     75.2772E-03
            4606            4869     67.8190E-03     70.6216E-03
            4607            4851     66.3775E-03     69.5620E-03
            4607            4852     62.1237E-03     65.3232E-03
            4607            4869     67.8190E-03     70.6216E-03
            4607            4870     63.4458E-03     66.1863E-03
            4608            4852     62.1237E-03     65.3232E-03
            4608            4853     58.0088E-03     61.2082E-03
            4608            4870     63.4458E-03     66.1863E-03
            4608            4871     59.1920E-03     61.8921E-03
            4609            4853     58.0088E-03     61.2082E-03
            4609            4854     53.9437E-03     57.1468E-03
            4609            4871     59.1920E-03     61.8921E-03
            4609            4872     55.0042E-03     57.6681E-03
            4610            4854     53.9437E-03     57.1468E-03
            4610            4855     49.9071E-03     53.1057E-03
            4610            4872     55.0042E-03     57.6681E-03
            4610            4873     50.8451E-03     53.4853E-03
            4611            4855     49.9071E-03     53.1057E-03
            4611            4856     45.8793E-03     49.0687E-03
            4611            4873     50.8451E-03     53.4853E-03
            4611            4874     46.7051E-03     49.3262E-03
            4612            4856     45.8793E-03     49.0687E-03
            4612            4857     41.8610E-03     45.0335E-03
            4612            4874     46.7051E-03     49.3262E-03
            4612            4875     42.5794E-03     45.1865E-03
            4613            4857     41.8610E-03     45.0335E-03
            4613            4858     37.8681E-03     41.0144E-03
            4613            4875     42.5794E-03     45.1865E-03
            4613            4876     38.4749E-03     41.0747E-03
            4614            4858     37.8681E-03     41.0144E-03
            4614            4859     33.9189E-03     37.0236E-03
            4614            4876     38.4749E-03     41.0747E-03
            4614            4877     34.4064E-03     37.0064E-03
            4615            4859     33.9189E-03     37.0236E-03
            4615            4860     30.0673E-03     33.1178E-03
            4615            4877     34.4064E-03     37.0064E-03
            4615            4878     30.4121E-03     33.0163E-03
            4616            4860     30.0673E-03     33.1178E-03
            4616            4861     26.3758E-03     29.3456E-03
            4616            4878     30.4121E-03     33.0163E-03
            4616            4879     26.5071E-03     29.1389E-03
            4617            4861     26.3758E-03     29.3456E-03
            4617            4862     22.9554E-03     25.8374E-03
            4617            4879     26.5071E-03     29.1389E-03
            4617            4880     22.8468E-03     25.5194E-03
            4618            4862     22.9554E-03     25.8374E-03
            4618            4863     20.0704E-03     22.9602E-03
            4618            4880     22.8468E-03     25.5194E-03
            4618            4881     19.1832E-03     21.9648E-03
            4619            4863     20.0704E-03     22.9602E-03
            4619            4864     16.7412E-03     19.8327E-03
            4619            4881     19.1832E-03     21.9648E-03
            4619            4882     15.4390E-03     18.0740E-03
            4620             853     14.1183E-03     14.0781E-03
            4620             854     13.0500E-03     12.7837E-03
            4620            4864     16.7412E-03     19.8327E-03
            4620            4882     15.4390E-03     18.0740E-03
            4621             801     99.1872E-03     101.133E-03
            4621             802     96.2174E-03     98.3973E-03
            4621            4865     90.5560E-03     92.9832E-03
            4621            4883     89.9340E-03     92.2727E-03
            4622            4865     90.5560E-03     92.9832E-03
            4622            4866     83.1989E-03     86.0651E-03
            4622            4883     89.9340E-03     92.2727E-03
            4622            4884     83.9616E-03     86.4338E-03
            4623            4866     83.1989E-03     86.0651E-03
            4623            4867     77.4767E-03     80.3664E-03
            4623            4884     83.9616E-03     86.4338E-03
            4623            4885     78.4913E-03     81.0543E-03
            4624            4867     77.4767E-03     80.3664E-03
            4624            4868     72.4207E-03     75.2772E-03
            4624            4885     78.4913E-03     81.0543E-03
            4624            4886     73.6363E-03     76.0874E-03
            4625            4868     72.4207E-03     75.2772E-03
            4625            4869     67.8190E-03     70.6216E-03
            4625            4886     73.6363E-03     76.0874E-03
            4625            4887     69.0046E-03     71.3576E-03
            4626            4869     67.8190E-03     70.6216E-03
            4626            4870     63.4458E-03     66.1863E-03
            4626            4887     69.0046E-03     71.3576E-03
            4626            4888     64.5676E-03     66.8214E-03
            4627            4870     63.4458E-03     66.1863E-03
            4627            4871     59.1920E-03     61.8921E-03
            4627            4888     64.5676E-03     66.8214E-03
            4627            4889     60.2202E-03     62.3966E-03
            4628            4871     59.1920E-03     61.8921E-03
            4628            4872     55.0042E-03     57.6681E-03
            4628            4889     60.2202E-03     62.3966E-03
            4628            4890     55.9363E-03     58.0577E-03
            4629            4872     55.0042E-03     57.6681E-03
            4629            4873     50.8451E-03     53.4853E-03
            4629            4890     55.9363E-03     58.0577E-03
            4629            4891     51.6900E-03     53.7722E-03
            4630            4873     50.8451E-03     53.4853E-03
            4630            4874     46.7051E-03     49.3262E-03
            4630            4891     51.6900E-03     53.7722E-03
            4630            4892     47.4695E-03     49.5276E-03
            4631            4874     46.7051E-03     49.3262E-03
            4631            4875     42.5794E-03     45.1865E-03
            4631            4892     47.4695E-03     49.5276E-03
            4631            4893     43.2715E-03     45.3216E-03
            4632            4875     42.5794E-03     45.1865E-03
            4632            4876     38.4749E-03     41.0747E-03
            4632            4893     43.2715E-03     45.3216E-03
            4632            4894     39.0917E-03     41.1501E-03
            4633            4876     38.4749E-03     41.0747E-03
            4633            4877     34.4064E-03     37.0064E-03
            4633            4894     39.0917E-03     41.1501E-03
            4633            4895     34.9412E-03     37.0389E-03
            4634            4877     34.4064E-03     37.0064E-03
            4634            4878     30.4121E-03     33.0163E-03
            4634            4895     34.9412E-03     37.0389E-03
            4634            4896     30.8165E-03     32.9870E-03
            4635            4878     30.4121E-03     33.0163E-03
            4635            4879     26.5071E-03     29.1389E-03
            4635            4896     30.8165E-03     32.9870E-03
            4635            4897     26.7767E-03     29.0396E-03
            4636            4879     26.5071E-03     29.1389E-03
            4636            4880     22.8468E-03     25.5194E-03
            4636            4897     26.7767E-03     29.0396E-03
            4636            4898     22.7638E-03     25.1785E-03
            4637            4880     22.8468E-03     25.5194E-03
            4637            4881     19.1832E-03     21.9648E-03
            4637            4898     22.7638E-03     25.1785E-03
            4637            4899     18.8382E-03     21.2416E-03
            4638            4881     19.1832E-03     21.9648E-03
            4638            4882     15.4390E-03     18.0740E-03
            4638            4899     18.8382E-03     21.2416E-03
            4638            4900     15.0803E-03     17.3893E-03
            4639             854     13.0500E-03     12.7837E-03
            4639             855     13.0156E-03     12.7505E-03
            4639            4882     15.4390E-03     18.0740E-03
            4639            4900     15.0803E-03     17.3893E-03
            4640             802     96.2174E-03     98.3973E-03
            4640             803     92.8171E-03     94.6193E-03
            4640            4883     89.9340E-03     92.2727E-03
            4640            4901     88.0403E-03     90.2554E-03
            4641            4883     89.9340E-03     92.2727E-03
            4641            4884     83.9616E-03     86.4338E-03
            4641            4901     88.0403E-03     90.2554E-03
            4641            4902     83.4302E-03     85.6541E-03
            4642            4884     83.9616E-03     86.4338E-03
            4642            4885     78.4913E-03     81.0543E-03
            4642            4902     83.4302E-03     85.6541E-03
            4642            4903     78.8308E-03     80.9155E-03
            4643            4885     78.4913E-03     81.0543E-03
            4643            4886     73.6363E-03     76.0874E-03
            4643            4903     78.8308E-03     80.9155E-03
            4643            4904     74.2311E-03     76.2068E-03
            4644            4886     73.6363E-03     76.0874E-03
            4644            4887     69.0046E-03     71.3576E-03
            4644            4904     74.2311E-03     76.2068E-03
            4644            4905     69.7592E-03     71.5756E-03
            4645            4887     69.0046E-03     71.3576E-03
            4645            4888     64.5676E-03     66.8214E-03
            4645            4905     69.7592E-03     71.5756E-03
            4645            4906     65.3197E-03     67.0286E-03
            4646            4888     64.5676E-03     66.8214E-03
            4646            4889     60.2202E-03     62.3966E-03
            4646            4906     65.3197E-03     67.0286E-03
            4646            4907     60.9541E-03     62.5729E-03
            4647            4889     60.2202E-03     62.3966E-03
            4647            4890     55.9363E-03     58.0577E-03
            4647            4907     60.9541E-03     62.5729E-03
            4647            4908     56.6276E-03     58.1859E-03
            4648            4890     55.9363E-03     58.0577E-03
            4648            4891     51.6900E-03     53.7722E-03
            4648            4908     56.6276E-03     58.1859E-03
            4648            4909     52.3442E-03     53.8609E-03
            4649            4891     51.6900E-03     53.7722E-03
            4649            4892     47.4695E-03     49.5276E-03
            4649            4909     52.3442E-03     53.8609E-03
            4649            4910     48.0933E-03     49.5873E-03
            4650            4892     47.4695E-03     49.5276E-03
            4650            4893     43.2715E-03     45.3216E-03
            4650            4910     48.0933E-03     49.5873E-03
            4650            4911     43.8675E-03     45.3564E-03
            4651            4893     43.2715E-03     45.3216E-03
            4651            4894     39.0917E-03     41.1501E-03
            4651            4911     43.8675E-03     45.3564E-03
            4651            4912     39.6661E-03     41.1792E-03
            4652            4894     39.0917E-03     41.1501E-03
            4652            4895     34.9412E-03     37.0389E-03
            4652            4912     39.6661E-03     41.1792E-03
            4652            4913     35.4735E-03     37.0451E-03
            4653            4895     34.9412E-03     37.0389E-03
            4653            4896     30.8165E-03     32.9870E-03
            4653            4913     35.4735E-03     37.0451E-03
            4653            4914     31.2930E-03     32.9944E-03
            4654            4896     30.8165E-03     32.9870E-03
            4654            4897     26.7767E-03     29.0396E-03
            4654            4914     31.2930E-03     32.9944E-03
            4654            4915     27.1122E-03     29.0066E-03
            4655            4897     26.7767E-03     29.0396E-03
            4655            4898     22.7638E-03     25.1785E-03
            4655            4915     27.1122E-03     29.0066E-03
            4655            4916     22.9666E-03     24.9951E-03
            4656            4898     22.7638E-03     25.1785E-03
            4656            4899     18.8382E-03     21.2416E-03
            4656            4916     22.9666E-03     24.9951E-03
            4656            4917     18.9337E-03     21.1037E-03
            4657            4899     18.8382E-03     21.2416E-03
            4657            4900     15.0803E-03     17.3893E-03
            4657            4917     18.9337E-03     21.1037E-03
            4657            4918     15.4296E-03     17.3298E-03
            4658             855     13.0156E-03     12.7505E-03
            4658             856     13.8080E-03     13.3272E-03
            4658            4900     15.0803E-03     17.3893E-03
            4658            4918     15.4296E-03     17.3298E-03
            4659             803     92.8171E-03     94.6193E-03
            4659             804     88.7290E-03     90.5015E-03
            4659            4901     88.0403E-03     90.2554E-03
            4659            4919     85.5269E-03     87.3994E-03
            4660            4901     88.0403E-03     90.2554E-03
            4660            4902     83.4302E-03     85.6541E-03
            4660            4919     85.5269E-03     87.3994E-03
            4660            4920     82.1126E-03     83.8733E-03
            4661            4902     83.4302E-03     85.6541E-03
            4661            4903     78.8308E-03     80.9155E-03
            4661            4920     82.1126E-03     83.8733E-03
            4661            4921     78.3067E-03     79.8514E-03
            4662            4903     78.8308E-03     80.9155E-03
            4662            4904     74.2311E-03     76.2068E-03
            4662            4921     78.3067E-03     79.8514E-03
            4662            4922     74.1860E-03     75.5200E-03
            4663            4904     74.2311E-03     76.2068E-03
            4663            4905     69.7592E-03     71.5756E-03
            4663            4922     74.1860E-03     75.5200E-03
            4663            4923     69.8999E-03     71.1052E-03
            4664            4905     69.7592E-03     71.5756E-03
            4664            4906     65.3197E-03     67.0286E-03
            4664            4923     69.8999E-03     71.1052E-03
            4664            4924     65.5934E-03     66.6835E-03
            4665            4906     65.3197E-03     67.0286E-03
            4665            4907     60.9541E-03     62.5729E-03
            4665            4924     65.5934E-03     66.6835E-03
            4665            4925     61.2735E-03     62.2966E-03
            4666            4907     60.9541E-03     62.5729E-03
            4666            4908     56.6276E-03     58.1859E-03
            4666            4925     61.2735E-03     62.2966E-03
            4666            4926     56.9894E-03     57.9609E-03
            4667            4908     56.6276E-03     58.1859E-03
            4667            4909     52.3442E-03     53.8609E-03
            4667            4926     56.9894E-03     57.9609E-03
            4667            4927     52.7338E-03     53.6759E-03
            4668            4909     52.3442E-03     53.8609E-03
            4668            4910     48.0933E-03     49.5873E-03
            4668            4927     52.7338E-03     53.6759E-03
            4668            4928     48.5137E-03     49.4389E-03
            4669            4910     48.0933E-03     49.5873E-03
            4669            4911     43.8675E-03     45.3564E-03
            4669            4928     48.5137E-03     49.4389E-03
            4669            4929     44.3251E-03     45.2509E-03
            4670            4911     43.8675E-03     45.3564E-03
            4670            4912     39.6661E-03     41.1792E-03
            4670            4929     44.3251E-03     45.2509E-03
            4670            4930     40.1550E-03     41.1045E-03
            4671            4912     39.6661E-03     41.1792E-03
            4671            4913     35.4735E-03     37.0451E-03
            4671            4930     40.1550E-03     41.1045E-03
            4671            4931     35.9991E-03     37.0194E-03
            4672            4913     35.4735E-03     37.0451E-03
            4672            4914     31.2930E-03     32.9944E-03
            4672            4931     35.9991E-03     37.0194E-03
            4672            4932     31.8295E-03     32.9869E-03
            4673            4914     31.2930E-03     32.9944E-03
            4673            4915     27.1122E-03     29.0066E-03
            4673            4932     31.8295E-03     32.9869E-03
            4673            4933     27.6178E-03     29.0535E-03
            4674            4915     27.1122E-03     29.0066E-03
            4674            4916     22.9666E-03     24.9951E-03
            4674            4933     27.6178E-03     29.0535E-03
            4674            4934     23.4322E-03     25.1994E-03
            4675            4916     22.9666E-03     24.9951E-03
            4675            4917     18.9337E-03     21.1037E-03
            4675            4934     23.4322E-03     25.1994E-03
            4675            4935     19.4828E-03     21.2927E-03
            4676            4917     18.9337E-03     21.1037E-03
            4676            4918     15.4296E-03     17.3298E-03
            4676            4935     19.4828E-03     21.2927E-03
            4676            4936     16.1748E-03     17.9123E-03
            4677             856     13.8080E-03     13.3272E-03
            4677             857     14.9926E-03     14.9560E-03
            4677            4918     15.4296E-03     17.3298E-03
            4677            4936     16.1748E-03     17.9123E-03
            4678             804     88.7290E-03     90.5015E-03
            4678             805     84.3193E-03     85.7267E-03
            4678            4919     85.5269E-03     87.3994E-03
            4678            4937     82.5713E-03     83.8972E-03
            4679            4919     85.5269E-03     87.3994E-03
            4679            4920     82.1126E-03     83.8733E-03
            4679            4937     82.5713E-03     83.8972E-03
            4679            4938     80.2608E-03     81.2479E-03
            4680            4920     82.1126E-03     83.8733E-03
            4680            4921     78.3067E-03     79.8514E-03
            4680            4938     80.2608E-03     81.2479E-03
            4680            4939     77.0685E-03     77.8161E-03
            4681            4921     78.3067E-03     79.8514E-03
            4681            4922     74.1860E-03     75.5200E-03
            4681            4939     77.0685E-03     77.8161E-03
            4681            4940     73.3805E-03     73.9646E-03
            4682            4922     74.1860E-03     75.5200E-03
            4682            4923     69.8999E-03     71.1052E-03
            4682            4940     73.3805E-03     73.9646E-03
            4682            4941     69.4058E-03     69.8812E-03
            4683            4923     69.8999E-03     71.1052E-03
            4683            4924     65.5934E-03     66.6835E-03
            4683            4941     69.4058E-03     69.8812E-03
            4683            4942     65.2881E-03     65.7134E-03
            4684            4924     65.5934E-03     66.6835E-03
            4684            4925     61.2735E-03     62.2966E-03
            4684            4942     65.2881E-03     65.7134E-03
            4684            4943     61.1345E-03     61.5214E-03
            4685            4925     61.2735E-03     62.2966E-03
            4685            4926     56.9894E-03     57.9609E-03
            4685            4943     61.1345E-03     61.5214E-03
            4685            4944     56.9692E-03     57.3427E-03
            4686            4926     56.9894E-03     57.9609E-03
            4686            4927     52.7338E-03     53.6759E-03
            4686            4944     56.9692E-03     57.3427E-03
            4686            4945     52.8275E-03     53.1903E-03
            4687            4927     52.7338E-03     53.6759E-03
            4687            4928     48.5137E-03     49.4389E-03
            4687            4945     52.8275E-03     53.1903E-03
            4687            4946     48.7105E-03     49.0720E-03
            4688            4928     48.5137E-03     49.4389E-03
            4688            4929     44.3251E-03     45.2509E-03
            4688            4946     48.7105E-03     49.0720E-03
            4688            4947     44.6216E-03     44.9880E-03
            4689            4929     44.3251E-03     45.2509E-03
            4689            4930     40.1550E-03     41.1045E-03
            4689            4947     44.6216E-03     44.9880E-03
            4689            4948     40.5598E-03     40.9444E-03
            4690            4930     40.1550E-03     41.1045E-03
            4690            4931     35.9991E-03     37.0194E-03
            4690            4948     40.5598E-03     40.9444E-03
            4690            4949     36.5079E-03     36.9451E-03
            4691            4931     35.9991E-03     37.0194E-03
            4691            4932     31.8295E-03     32.9869E-03
            4691            4949     36.5079E-03     36.9451E-03
            4691            4950     32.4561E-03     33.0136E-03
            4692            4932     31.8295E-03     32.9869E-03
            4692            4933     27.6178E-03     29.0535E-03
            4692            4950     32.4561E-03     33.0136E-03
            4692            4951     28.3700E-03     29.1819E-03
            4693            4933     27.6178E-03     29.0535E-03
            4693            4934     23.4322E-03     25.1994E-03
            4693            4951     28.3700E-03     29.1819E-03
            4693            4952     24.2271E-03     25.6129E-03
            4694            4934     23.4322E-03     25.1994E-03
            4694            4935     19.4828E-03     21.2927E-03
            4694            4952     24.2271E-03     25.6129E-03
            4694            4953     20.3631E-03     22.2173E-03
            4695            4935     19.4828E-03     21.2927E-03
            4695            4936     16.1748E-03     17.9123E-03
            4695            4953     20.3631E-03     22.2173E-03
            4695            4954     17.4624E-03     18.8432E-03
            4696             857     14.9926E-03     14.9560E-03
            4696             858     16.6170E-03     16.3718E-03
            4696            4936     16.1748E-03     17.9123E-03
            4696            4954     17.4624E-03     18.8432E-03
            4697             805     84.3193E-03     85.7267E-03
            4697             806     79.8287E-03     80.3151E-03
            4697            4937     82.5713E-03     83.8972E-03
            4697            4955     79.5743E-03     79.6470E-03
            4698            4937     82.5713E-03     83.8972E-03
            4698            4938     80.2608E-03     81.2479E-03
            4698            4955     79.5743E-03     79.6470E-03
            4698            4956     77.7979E-03     77.6511E-03
            4699            4938     80.2608E-03     81.2479E-03
            4699            4939     77.0685E-03     77.8161E-03
            4699            4956     77.7979E-03     77.6511E-03
            4699            4957     75.1326E-03     74.8465E-03
            4700            4939     77.0685E-03     77.8161E-03
            4700            4940     73.3805E-03     73.9646E-03
            4700            4957     75.1326E-03     74.8465E-03
            4700            4958     71.8529E-03     71.5389E-03
            4701            4940     73.3805E-03     73.9646E-03
            4701            4941     69.4058E-03     69.8812E-03
            4701            4958     71.8529E-03     71.5389E-03
            4701            4959     68.2388E-03     67.9331E-03
            4702            4941     69.4058E-03     69.8812E-03
            4702            4942     65.2881E-03     65.7134E-03
            4702            4959     68.2388E-03     67.9331E-03
            4702            4960     64.4368E-03     64.1508E-03
            4703            4942     65.2881E-03     65.7134E-03
            4703            4943     61.1345E-03     61.5214E-03
            4703            4960     64.4368E-03     64.1508E-03
            4703            4961     60.5350E-03     60.2841E-03
            4704            4943     61.1345E-03     61.5214E-03
            4704            4944     56.9692E-03     57.3427E-03
            4704            4961     60.5350E-03     60.2841E-03
            4704            4962     56.5990E-03     56.3717E-03
            4705            4944     56.9692E-03     57.3427E-03
            4705            4945     52.8275E-03     53.1903E-03
            4705            4962     56.5990E-03     56.3717E-03
            4705            4963     52.6490E-03     52.4485E-03
            4706            4945     52.8275E-03     53.1903E-03
            4706            4946     48.7105E-03     49.0720E-03
            4706            4963     52.6490E-03     52.4485E-03
            4706            4964     48.7103E-03     48.5270E-03
            4707            4946     48.7105E-03     49.0720E-03
            4707            4947     44.6216E-03     44.9880E-03
            4707            4964     48.7103E-03     48.5270E-03
            4707            4965     44.7885E-03     44.6199E-03
            4708            4947     44.6216E-03     44.9880E-03
            4708            4948     40.5598E-03     40.9444E-03
            4708            4965     44.7885E-03     44.6199E-03
            4708            4966     40.8920E-03     40.7383E-03
            4709            4948     40.5598E-03     40.9444E-03
            4709            4949     36.5079E-03     36.9451E-03
            4709            4966     40.8920E-03     40.7383E-03
            4709            4967     37.0243E-03     36.8893E-03
            4710            4949     36.5079E-03     36.9451E-03
            4710            4950     32.4561E-03     33.0136E-03
            4710            4967     37.0243E-03     36.8893E-03
            4710            4968     33.1822E-03     33.1114E-03
            4711            4950     32.4561E-03     33.0136E-03
            4711            4951     28.3700E-03     29.1819E-03
            4711            4968     33.1822E-03     33.1114E-03
            4711            4969     29.3657E-03     29.4496E-03
            4712            4951     28.3700E-03     29.1819E-03
            4712            4952     24.2271E-03     25.6129E-03
            4712            4969     29.3657E-03     29.4496E-03
            4712            4970     25.5362E-03     26.0824E-03
            4713            4952     24.2271E-03     25.6129E-03
            4713            4953     20.3631E-03     22.2173E-03
            4713            4970     25.5362E-03     26.0824E-03
            4713            4971     21.7260E-03     23.4463E-03
            4714            4953     20.3631E-03     22.2173E-03
            4714            4954     17.4624E-03     18.8432E-03
            4714            4971     21.7260E-03     23.4463E-03
            4714            4972     19.0018E-03     21.2265E-03
            4715             858     16.6170E-03     16.3718E-03
            4715             859     18.8081E-03     19.4864E-03
            4715            4954     17.4624E-03     18.8432E-03
            4715            4972     19.0018E-03     21.2265E-03
            4716             806     79.8287E-03     80.3151E-03
            4716             807     76.0989E-03     74.2179E-03
            4716            4955     79.5743E-03     79.6470E-03
            4716            4973     76.1497E-03     74.3239E-03
            4717            4955     79.5743E-03     79.6470E-03
            4717            4956     77.7979E-03     77.6511E-03
            4717            4973     76.1497E-03     74.3239E-03
            4717            4974     74.7227E-03     73.0579E-03
            4718            4956     77.7979E-03     77.6511E-03
            4718            4957     75.1326E-03     74.8465E-03
            4718            4974     74.7227E-03     73.0579E-03
            4718            4975     72.4621E-03     71.0150E-03
            4719            4957     75.1326E-03     74.8465E-03
            4719            4958     71.8529E-03     71.5389E-03
            4719            4975     72.4621E-03     71.0150E-03
            4719            4976     69.6698E-03     68.4083E-03
            4720            4958     71.8529E-03     71.5389E-03
            4720            4959     68.2388E-03     67.9331E-03
            4720            4976     69.6698E-03     68.4083E-03
            4720            4977     66.5146E-03     65.4119E-03
            4721            4959     68.2388E-03     67.9331E-03
            4721            4960     64.4368E-03     64.1508E-03
            4721            4977     66.5146E-03     65.4119E-03
            4721            4978     63.1317E-03     62.1622E-03
            4722            4960     64.4368E-03     64.1508E-03
            4722            4961     60.5350E-03     60.2841E-03
            4722            4978     63.1317E-03     62.1622E-03
            4722            4979     59.6025E-03     58.7279E-03
            4723            4961     60.5350E-03     60.2841E-03
            4723            4962     56.5990E-03     56.3717E-03
            4723            4979     59.6025E-03     58.7279E-03
            4723            4980     55.9781E-03     55.1862E-03
            4724            4962     56.5990E-03     56.3717E-03
            4724            4963     52.6490E-03     52.4485E-03
            4724            4980     55.9781E-03     55.1862E-03
            4724            4981     52.3039E-03     51.5686E-03
            4725            4963     52.6490E-03     52.4485E-03
            4725            4964     48.7103E-03     48.5270E-03
            4725            4981     52.3039E-03     51.5686E-03
            4725            4982     48.5996E-03     47.9136E-03
            4726            4964     48.7103E-03     48.5270E-03
            4726            4965     44.7885E-03     44.6199E-03
            4726            4982     48.5996E-03     47.9136E-03
            4726            4983     44.8961E-03     44.2425E-03
            4727            4965     44.7885E-03     44.6199E-03
            4727            4966     40.8920E-03     40.7383E-03
            4727            4983     44.8961E-03     44.2425E-03
            4727            4984     41.2058E-03     40.5749E-03
            4728            4966     40.8920E-03     40.7383E-03
            4728            4967     37.0243E-03     36.8893E-03
            4728            4984     41.2058E-03     40.5749E-03
            4728            4985     37.5674E-03     36.9403E-03
            4729            4967     37.0243E-03     36.8893E-03
            4729            4968     33.1822E-03     33.1114E-03
            4729            4985     37.5674E-03     36.9403E-03
            4729            4986     33.9931E-03     33.3600E-03
            4730            4968     33.1822E-03     33.1114E-03
            4730            4969     29.3657E-03     29.4496E-03
            4730            4986     33.9931E-03     33.3600E-03
            4730            4987     30.5565E-03     29.9206E-03
            4731            4969     29.3657E-03     29.4496E-03
            4731            4970     25.5362E-03     26.0824E-03
            4731            4987     30.5565E-03     29.9206E-03
            4731            4988     27.2526E-03     26.7253E-03
            4732            4970     25.5362E-03     26.0824E-03
            4732            4971     21.7260E-03     23.4463E-03
            4732            4988     27.2526E-03     26.7253E-03
            4732            4989     24.1435E-03     24.2936E-03
            4733            4971     21.7260E-03     23.4463E-03
            4733            4972     19.0018E-03     21.2265E-03
            4733            4989     24.1435E-03     24.2936E-03
            4733            4990     21.2688E-03     23.4354E-03
            4734             859     18.8081E-03     19.4864E-03
            4734             860     19.5780E-03     23.4407E-03
            4734            4972     19.0018E-03     21.2265E-03
            4734            4990     21.2688E-03     23.4354E-03
            4735             807     76.0989E-03     74.2179E-03
            4735             808     64.2181E-03     64.6544E-03
            4735            4973     76.1497E-03     74.3239E-03
            4735            4991     60.4452E-03     60.6568E-03
            4736            4973     76.1497E-03     74.3239E-03
            4736            4974     74.7227E-03     73.0579E-03
            4736            4991     60.4452E-03     60.6568E-03
            4736            4992     56.9792E-03     57.3790E-03
            4737            4974     74.7227E-03     73.0579E-03
            4737            4975     72.4621E-03     71.0150E-03
            4737            4992     56.9792E-03     57.3790E-03
            4737            4993     53.9974E-03     54.5146E-03
            4738            4975     72.4621E-03     71.0150E-03
            4738            4976     69.6698E-03     68.4083E-03
            4738            4993     53.9974E-03     54.5146E-03
            4738            4994     51.0845E-03     51.8211E-03
            4739            4976     69.6698E-03     68.4083E-03
            4739            4977     66.5146E-03     65.4119E-03
            4739            4994     51.0845E-03     51.8211E-03
            4739            4995     48.3200E-03     49.1832E-03
            4740            4977     66.5146E-03     65.4119E-03
            4740            4978     63.1317E-03     62.1622E-03
            4740            4995     48.3200E-03     49.1832E-03
            4740            4996     45.5546E-03     46.5574E-03
            4741            4978     63.1317E-03     62.1622E-03
            4741            4979     59.6025E-03     58.7279E-03
            4741            4996     45.5546E-03     46.5574E-03
            4741            4997     42.8252E-03     43.9095E-03
            4742            4979     59.6025E-03     58.7279E-03
            4742            4980     55.9781E-03     55.1862E-03
            4742            4997     42.8252E-03     43.9095E-03
            4742            4998     40.0794E-03     41.2415E-03
            4743            4980     55.9781E-03     55.1862E-03
            4743            4981     52.3039E-03     51.5686E-03
            4743            4998     40.0794E-03     41.2415E-03
            4743            4999     37.3363E-03     38.5434E-03
            4744            4981     52.3039E-03     51.5686E-03
            4744            4982     48.5996E-03     47.9136E-03
            4744            4999     37.3363E-03     38.5434E-03
            4744            5000     34.5873E-03     35.8351E-03
            4745            4982     48.5996E-03     47.9136E-03
            4745            4983     44.8961E-03     44.2425E-03
            4745            5000     34.5873E-03     35.8351E-03
            4745            5001     31.8468E-03     33.1136E-03
            4746            4983     44.8961E-03     44.2425E-03
            4746            4984     41.2058E-03     40.5749E-03
            4746            5001     31.8468E-03     33.1136E-03
            4746            5002     29.1344E-03     30.4097E-03
            4747            4984     41.2058E-03     40.5749E-03
            4747            4985     37.5674E-03     36.9403E-03
            4747            5002     29.1344E-03     30.4097E-03
            4747            5003     26.4695E-03     27.7305E-03
            4748            4985     37.5674E-03     36.9403E-03
            4748            4986     33.9931E-03     33.3600E-03
            4748            5003     26.4695E-03     27.7305E-03
            4748            5004     23.9083E-03     25.1248E-03
            4749            4986     33.9931E-03     33.3600E-03
            4749            4987     30.5565E-03     29.9206E-03
            4749            5004     23.9083E-03     25.1248E-03
            4749            5005     21.4901E-03     22.6465E-03
            4750            4987     30.5565E-03     29.9206E-03
            4750            4988     27.2526E-03     26.7253E-03
            4750            5005     21.4901E-03     22.6465E-03
            4750            5006     19.3495E-03     20.4066E-03
            4751            4988     27.2526E-03     26.7253E-03
            4751            4989     24.1435E-03     24.2936E-03
            4751            5006     19.3495E-03     20.4066E-03
            4751            5007     17.5683E-03     18.7305E-03
            4752            4989     24.1435E-03     24.2936E-03
            4752            4990     21.2688E-03     23.4354E-03
            4752            5007     17.5683E-03     18.7305E-03
            4752            5008     16.6046E-03     18.8401E-03
            4753             860     19.5780E-03     23.4407E-03
            4753             861     16.3722E-03     19.2270E-03
            4753            4990     21.2688E-03     23.4354E-03
            4753            5008     16.6046E-03     18.8401E-03
            4754             808     64.2181E-03     64.6544E-03
            4754             809     55.4495E-03     58.9272E-03
            4754            4991     60.4452E-03     60.6568E-03
            4754            5009     46.8519E-03     49.9775E-03
            4755            4991     60.4452E-03     60.6568E-03
            4755            4992     56.9792E-03     57.3790E-03
            4755            5009     46.8519E-03     49.9775E-03
            4755            5010     41.3634E-03     44.3387E-03
            4756            4992     56.9792E-03     57.3790E-03
            4756            4993     53.9974E-03     54.5146E-03
            4756            5010     41.3634E-03     44.3387E-03
            4756            5011     37.2190E-03     40.1769E-03
            4757            4993     53.9974E-03     54.5146E-03
            4757            4994     51.0845E-03     51.8211E-03
            4757            5011     37.2190E-03     40.1769E-03
            4757            5012     34.0419E-03     37.0145E-03
            4758            4994     51.0845E-03     51.8211E-03
            4758            4995     48.3200E-03     49.1832E-03
            4758            5012     34.0419E-03     37.0145E-03
            4758            5013     31.3612E-03     34.3799E-03
            4759            4995     48.3200E-03     49.1832E-03
            4759            4996     45.5546E-03     46.5574E-03
            4759            5013     31.3612E-03     34.3799E-03
            4759            5014     29.0330E-03     32.0907E-03
            4760            4996     45.5546E-03     46.5574E-03
            4760            4997     42.8252E-03     43.9095E-03
            4760            5014     29.0330E-03     32.0907E-03
            4760            5015     26.8825E-03     29.9754E-03
            4761            4997     42.8252E-03     43.9095E-03
            4761            4998     40.0794E-03     41.2415E-03
            4761            5015     26.8825E-03     29.9754E-03
            4761            5016     24.8505E-03     27.9682E-03
            4762            4998     40.0794E-03     41.2415E-03
            4762            4999     37.3363E-03     38.5434E-03
            4762            5016     24.8505E-03     27.9682E-03
            4762            5017     22.8757E-03     26.0082E-03
            4763            4999     37.3363E-03     38.5434E-03
            4763            5000     34.5873E-03     35.8351E-03
            4763            5017     22.8757E-03     26.0082E-03
            4763            5018     20.9393E-03     24.0775E-03
            4764            5000     34.5873E-03     35.8351E-03
            4764            5001     31.8468E-03     33.1136E-03
            4764            5018     20.9393E-03     24.0775E-03
            4764            5019     19.0326E-03     22.1645E-03
            4765            5001     31.8468E-03     33.1136E-03
            4765            5002     29.1344E-03     30.4097E-03
            4765            5019     19.0326E-03     22.1645E-03
            4765            5020     17.1571E-03     20.2726E-03
            4766            5002     29.1344E-03     30.4097E-03
            4766            5003     26.4695E-03     27.7305E-03
            4766            5020     17.1571E-03     20.2726E-03
            4766            5021     15.3432E-03     18.4252E-03
            4767            5003     26.4695E-03     27.7305E-03
            4767            5004     23.9083E-03     25.1248E-03
            4767            5021     15.3432E-03     18.4252E-03
            4767            5022     13.6054E-03     16.6433E-03
            4768            5004     23.9083E-03     25.1248E-03
            4768            5005     21.4901E-03     22.6465E-03
            4768            5022     13.6054E-03     16.6433E-03
            4768            5023     12.0414E-03     15.0159E-03
            4769            5005     21.4901E-03     22.6465E-03
            4769            5006     19.3495E-03     20.4066E-03
            4769            5023     12.0414E-03     15.0159E-03
            4769            5024     10.6964E-03     13.6024E-03
            4770            5006     19.3495E-03     20.4066E-03
            4770            5007     17.5683E-03     18.7305E-03
            4770            5024     10.6964E-03     13.6024E-03
            4770            5025     9.95647E-03     12.7846E-03
            4771            5007     17.5683E-03     18.7305E-03
            4771            5008     16.6046E-03     18.8401E-03
            4771            5025     9.95647E-03     12.7846E-03
            4771            5026     10.7318E-03     13.1808E-03
            4772             861     16.3722E-03     19.2270E-03
            4772             862     12.5581E-03     12.8076E-03
            4772            5008     16.6046E-03     18.8401E-03
            4772            5026     10.7318E-03     13.1808E-03
            4773             809     55.4495E-03     58.9272E-03
            4773             810     57.2254E-03     58.7501E-03
            4773            5009     46.8519E-03     49.9775E-03
            4773            5027     47.7153E-03     50.0686E-03
            4774            5009     46.8519E-03     49.9775E-03
            4774            5010     41.3634E-03     44.3387E-03
            4774            5027     47.7153E-03     50.0686E-03
            4774            5028     42.0018E-03     44.4873E-03
            4775            5010     41.3634E-03     44.3387E-03
            4775            5011     37.2190E-03     40.1769E-03
            4775            5028     42.0018E-03     44.4873E-03
            4775            5029     37.8675E-03     40.3957E-03
            4776            5011     37.2190E-03     40.1769E-03
            4776            5012     34.0419E-03     37.0145E-03
            4776            5029     37.8675E-03     40.3957E-03
            4776            5030     34.6658E-03     37.2312E-03
            4777            5012     34.0419E-03     37.0145E-03
            4777            5013     31.3612E-03     34.3799E-03
            4777            5030     34.6658E-03     37.2312E-03
            4777            5031     32.0406E-03     34.6112E-03
            4778            5013     31.3612E-03     34.3799E-03
            4778            5014     29.0330E-03     32.0907E-03
            4778            5031     32.0406E-03     34.6112E-03
            4778            5032     29.7161E-03     32.2997E-03
            4779            5014     29.0330E-03     32.0907E-03
            4779            5015     26.8825E-03     29.9754E-03
            4779            5032     29.7161E-03     32.2997E-03
            4779            5033     27.5816E-03     30.1676E-03
            4780            5015     26.8825E-03     29.9754E-03
            4780            5016     24.8505E-03     27.9682E-03
            4780            5033     27.5816E-03     30.1676E-03
            4780            5034     25.5357E-03     28.1253E-03
            4781            5016     24.8505E-03     27.9682E-03
            4781            5017     22.8757E-03     26.0082E-03
            4781            5034     25.5357E-03     28.1253E-03
            4781            5035     23.5437E-03     26.1320E-03
            4782            5017     22.8757E-03     26.0082E-03
            4782            5018     20.9393E-03     24.0775E-03
            4782            5035     23.5437E-03     26.1320E-03
            4782            5036     21.5776E-03     24.1612E-03
            4783            5018     20.9393E-03     24.0775E-03
            4783            5019     19.0326E-03     22.1645E-03
            4783            5036     21.5776E-03     24.1612E-03
            4783            5037     19.6344E-03     22.2082E-03
            4784            5019     19.0326E-03     22.1645E-03
            4784            5020     17.1571E-03     20.2726E-03
            4784            5037     19.6344E-03     22.2082E-03
            4784            5038     17.7240E-03     20.2782E-03
            4785            5020     17.1571E-03     20.2726E-03
            4785            5021     15.3432E-03     18.4252E-03
            4785            5038     17.7240E-03     20.2782E-03
            4785            5039     15.8658E-03     18.3908E-03
            4786            5021     15.3432E-03     18.4252E-03
            4786            5022     13.6054E-03     16.6433E-03
            4786            5039     15.8658E-03     18.3908E-03
            4786            5040     14.1094E-03     16.5819E-03
            4787            5022     13.6054E-03     16.6433E-03
            4787            5023     12.0414E-03     15.0159E-03
            4787            5040     14.1094E-03     16.5819E-03
            4787            5041     12.5244E-03     14.9143E-03
            4788            5023     12.0414E-03     15.0159E-03
            4788            5024     10.6964E-03     13.6024E-03
            4788            5041     12.5244E-03     14.9143E-03
            4788            5042     11.2300E-03     13.4836E-03
            4789            5024     10.6964E-03     13.6024E-03
            4789            5025     9.95647E-03     12.7846E-03
            4789            5042     11.2300E-03     13.4836E-03
            4789            5043     10.7279E-03     12.5945E-03
            4790            5025     9.95647E-03     12.7846E-03
            4790            5026     10.7318E-03     13.1808E-03
            4790            5043     10.7279E-03     12.5945E-03
            4790            5044     10.8827E-03     11.9823E-03
            4791             862     12.5581E-03     12.8076E-03
            4791             863     11.4071E-03     11.0169E-03
            4791            5026     10.7318E-03     13.1808E-03
            4791            5044     10.8827E-03     11.9823E-03
            4792             810     57.2254E-03     58.7501E-03
            4792             811     55.6203E-03     56.6347E-03
            4792            5027     47.7153E-03     50.0686E-03
            4792            5045     48.1151E-03     49.6098E-03
            4793            5027     47.7153E-03     50.0686E-03
            4793            5028     42.0018E-03     44.4873E-03
            4793            5045     48.1151E-03     49.6098E-03
            4793            5046     42.4425E-03     44.4024E-03
            4794            5028     42.0018E-03     44.4873E-03
            4794            5029     37.8675E-03     40.3957E-03
            4794            5046     42.4425E-03     44.4024E-03
            4794            5047     38.5411E-03     40.6133E-03
            4795            5029     37.8675E-03     40.3957E-03
            4795            5030     34.6658E-03     37.2312E-03
            4795            5047     38.5411E-03     40.6133E-03
            4795            5048     35.4382E-03     37.5516E-03
            4796            5030     34.6658E-03     37.2312E-03
            4796            5031     32.0406E-03     34.6112E-03
            4796            5048     35.4382E-03     37.5516E-03
            4796            5049     32.8492E-03     34.9686E-03
            4797            5031     32.0406E-03     34.6112E-03
            4797            5032     29.7161E-03     32.2997E-03
            4797            5049     32.8492E-03     34.9686E-03
            4797            5050     30.5427E-03     32.6431E-03
            4798            5032     29.7161E-03     32.2997E-03
            4798            5033     27.5816E-03     30.1676E-03
            4798            5050     30.5427E-03     32.6431E-03
            4798            5051     28.3862E-03     30.4720E-03
            4799            5033     27.5816E-03     30.1676E-03
            4799            5034     25.5357E-03     28.1253E-03
            4799            5051     28.3862E-03     30.4720E-03
            4799            5052     26.3153E-03     28.3831E-03
            4800            5034     25.5357E-03     28.1253E-03
            4800            5035     23.5437E-03     26.1320E-03
            4800            5052     26.3153E-03     28.3831E-03
            4800            5053     24.2852E-03     26.3401E-03
            4801            5035     23.5437E-03     26.1320E-03
            4801            5036     21.5776E-03     24.1612E-03
            4801            5053     24.2852E-03     26.3401E-03
            4801            5054     22.2824E-03     24.3242E-03
            4802            5036     21.5776E-03     24.1612E-03
            4802            5037     19.6344E-03     22.2082E-03
            4802            5054     22.2824E-03     24.3242E-03
            4802            5055     20.3004E-03     22.3294E-03
            4803            5037     19.6344E-03     22.2082E-03
            4803            5038     17.7240E-03     20.2782E-03
            4803            5055     20.3004E-03     22.3294E-03
            4803            5056     18.3533E-03     20.3651E-03
            4804            5038     17.7240E-03     20.2782E-03
            4804            5039     15.8658E-03     18.3908E-03
            4804            5056     18.3533E-03     20.3651E-03
            4804            5057     16.4606E-03     18.4436E-03
            4805            5039     15.8658E-03     18.3908E-03
            4805            5040     14.1094E-03     16.5819E-03
            4805            5057     16.4606E-03     18.4436E-03
            4805            5058     14.6813E-03     16.6113E-03
            4806            5040     14.1094E-03     16.5819E-03
            4806            5041     12.5244E-03     14.9143E-03
            4806            5058     14.6813E-03     16.6113E-03
            4806            5059     13.0680E-03     14.8975E-03
            4807            5041     12.5244E-03     14.9143E-03
            4807            5042     11.2300E-03     13.4836E-03
            4807            5059     13.0680E-03     14.8975E-03
            4807            5060     11.8492E-03     13.4553E-03
            4808            5042     11.2300E-03     13.4836E-03
            4808            5043     10.7279E-03     12.5945E-03
            4808            5060     11.8492E-03     13.4553E-03
            4808            5061     11.1007E-03     12.2811E-03
            4809            5043     10.7279E-03     12.5945E-03
            4809            5044     10.8827E-03     11.9823E-03
            4809            5061     11.1007E-03     12.2811E-03
            4809            5062     10.6782E-03     11.4353E-03
            4810             863     11.4071E-03     11.0169E-03
            4810             864     11.1225E-03     10.5978E-03
            4810            5044     10.8827E-03     11.9823E-03
            4810            5062     10.6782E-03     11.4353E-03
            4811             811     55.6203E-03     56.6347E-03
            4811             812     52.1517E-03     53.2403E-03
            4811            5045     48.1151E-03     49.6098E-03
            4811            5063     46.7369E-03     47.9779E-03
            4812            5045     48.1151E-03     49.6098E-03
            4812            5046     42.4425E-03     44.4024E-03
            4812            5063     46.7369E-03     47.9779E-03
            4812            5064     42.3722E-03     43.8380E-03
            4813            5046     42.4425E-03     44.4024E-03
            4813            5047     38.5411E-03     40.6133E-03
            4813            5064     42.3722E-03     43.8380E-03
            4813            5065     38.8820E-03     40.5336E-03
            4814            5047     38.5411E-03     40.6133E-03
            4814            5048     35.4382E-03     37.5516E-03
            4814            5065     38.8820E-03     40.5336E-03
            4814            5066     36.1127E-03     37.7745E-03
            4815            5048     35.4382E-03     37.5516E-03
            4815            5049     32.8492E-03     34.9686E-03
            4815            5066     36.1127E-03     37.7745E-03
            4815            5067     33.6431E-03     35.2904E-03
            4816            5049     32.8492E-03     34.9686E-03
            4816            5050     30.5427E-03     32.6431E-03
            4816            5067     33.6431E-03     35.2904E-03
            4816            5068     31.3815E-03     32.9935E-03
            4817            5050     30.5427E-03     32.6431E-03
            4817            5051     28.3862E-03     30.4720E-03
            4817            5068     31.3815E-03     32.9935E-03
            4817            5069     29.2175E-03     30.7939E-03
            4818            5051     28.3862E-03     30.4720E-03
            4818            5052     26.3153E-03     28.3831E-03
            4818            5069     29.2175E-03     30.7939E-03
            4818            5070     27.1160E-03     28.6644E-03
            4819            5052     26.3153E-03     28.3831E-03
            4819            5053     24.2852E-03     26.3401E-03
            4819            5070     27.1160E-03     28.6644E-03
            4819            5071     25.0496E-03     26.5746E-03
            4820            5053     24.2852E-03     26.3401E-03
            4820            5054     22.2824E-03     24.3242E-03
            4820            5071     25.0496E-03     26.5746E-03
            4820            5072     23.0074E-03     24.5168E-03
            4821            5054     22.2824E-03     24.3242E-03
            4821            5055     20.3004E-03     22.3294E-03
            4821            5072     23.0074E-03     24.5168E-03
            4821            5073     20.9921E-03     22.4885E-03
            4822            5055     20.3004E-03     22.3294E-03
            4822            5056     18.3533E-03     20.3651E-03
            4822            5073     20.9921E-03     22.4885E-03
            4822            5074     19.0064E-03     20.4933E-03
            4823            5056     18.3533E-03     20.3651E-03
            4823            5057     16.4606E-03     18.4436E-03
            4823            5074     19.0064E-03     20.4933E-03
            4823            5075     17.0875E-03     18.5555E-03
            4824            5057     16.4606E-03     18.4436E-03
            4824            5058     14.6813E-03     16.6113E-03
            4824            5075     17.0875E-03     18.5555E-03
            4824            5076     15.2583E-03     16.6856E-03
            4825            5058     14.6813E-03     16.6113E-03
            4825            5059     13.0680E-03     14.8975E-03
            4825            5076     15.2583E-03     16.6856E-03
            4825            5077     13.6367E-03     14.9663E-03
            4826            5059     13.0680E-03     14.8975E-03
            4826            5060     11.8492E-03     13.4553E-03
            4826            5077     13.6367E-03     14.9663E-03
            4826            5078     12.3100E-03     13.4176E-03
            4827            5060     11.8492E-03     13.4553E-03
            4827            5061     11.1007E-03     12.2811E-03
            4827            5078     12.3100E-03     13.4176E-03
            4827            5079     11.3418E-03     12.1592E-03
            4828            5061     11.1007E-03     12.2811E-03
            4828            5062     10.6782E-03     11.4353E-03
            4828            5079     11.3418E-03     12.1592E-03
            4828            5080     10.9849E-03     11.3323E-03
            4829             864     11.1225E-03     10.5978E-03
            4829             865     11.4945E-03     10.7157E-03
            4829            5062     10.6782E-03     11.4353E-03
            4829            5080     10.9849E-03     11.3323E-03
            4830             812     52.1517E-03     53.2403E-03
            4830             813     48.4684E-03     49.1937E-03
            4830            5063     46.7369E-03     47.9779E-03
            4830            5081     44.4158E-03     45.4995E-03
            4831            5063     46.7369E-03     47.9779E-03
            4831            5064     42.3722E-03     43.8380E-03
            4831            5081     44.4158E-03     45.4995E-03
            4831            5082     41.4161E-03     42.6206E-03
            4832            5064     42.3722E-03     43.8380E-03
            4832            5065     38.8820E-03     40.5336E-03
            4832            5082     41.4161E-03     42.6206E-03
            4832            5083     38.8572E-03     40.0797E-03
            4833            5065     38.8820E-03     40.5336E-03
            4833            5066     36.1127E-03     37.7745E-03
            4833            5083     38.8572E-03     40.0797E-03
            4833            5084     36.4939E-03     37.7159E-03
            4834            5066     36.1127E-03     37.7745E-03
            4834            5067     33.6431E-03     35.2904E-03
            4834            5084     36.4939E-03     37.7159E-03
            4834            5085     34.2859E-03     35.4401E-03
            4835            5067     33.6431E-03     35.2904E-03
            4835            5068     31.3815E-03     32.9935E-03
            4835            5085     34.2859E-03     35.4401E-03
            4835            5086     32.0994E-03     33.2050E-03
            4836            5068     31.3815E-03     32.9935E-03
            4836            5069     29.2175E-03     30.7939E-03
            4836            5086     32.0994E-03     33.2050E-03
            4836            5087     29.9647E-03     31.0219E-03
            4837            5069     29.2175E-03     30.7939E-03
            4837            5070     27.1160E-03     28.6644E-03
            4837            5087     29.9647E-03     31.0219E-03
            4837            5088     27.8488E-03     28.8708E-03
            4838            5070     27.1160E-03     28.6644E-03
            4838            5071     25.0496E-03     26.5746E-03
            4838            5088     27.8488E-03     28.8708E-03
            4838            5089     25.7612E-03     26.7579E-03
            4839            5071     25.0496E-03     26.5746E-03
            4839            5072     23.0074E-03     24.5168E-03
            4839            5089     25.7612E-03     26.7579E-03
            4839            5090     23.6961E-03     24.6764E-03
            4840            5072     23.0074E-03     24.5168E-03
            4840            5073     20.9921E-03     22.4885E-03
            4840            5090     23.6961E-03     24.6764E-03
            4840            5091     21.6551E-03     22.6295E-03
            4841            5073     20.9921E-03     22.4885E-03
            4841            5074     19.0064E-03     20.4933E-03
            4841            5091     21.6551E-03     22.6295E-03
            4841            5092     19.6525E-03     20.6258E-03
            4842            5074     19.0064E-03     20.4933E-03
            4842            5075     17.0875E-03     18.5555E-03
            4842            5092     19.6525E-03     20.6258E-03
            4842            5093     17.6919E-03     18.6737E-03
            4843            5075     17.0875E-03     18.5555E-03
            4843            5076     15.2583E-03     16.6856E-03
            4843            5093     17.6919E-03     18.6737E-03
            4843            5094     15.8358E-03     16.8092E-03
            4844            5076     15.2583E-03     16.6856E-03
            4844            5077     13.6367E-03     14.9663E-03
            4844            5094     15.8358E-03     16.8092E-03
            4844            5095     14.1347E-03     15.0464E-03
            4845            5077     13.6367E-03     14.9663E-03
            4845            5078     12.3100E-03     13.4176E-03
            4845            5095     14.1347E-03     15.0464E-03
            4845            5096     12.6962E-03     13.4855E-03
            4846            5078     12.3100E-03     13.4176E-03
            4846            5079     11.3418E-03     12.1592E-03
            4846            5096     12.6962E-03     13.4855E-03
            4846            5097     11.7487E-03     12.2127E-03
            4847            5079     11.3418E-03     12.1592E-03
            4847            5080     10.9849E-03     11.3323E-03
            4847            5097     11.7487E-03     12.2127E-03
            4847            5098     11.3988E-03     11.4668E-03
            4848             865     11.4945E-03     10.7157E-03
            4848             866     11.9792E-03     11.2172E-03
            4848            5080     10.9849E-03     11.3323E-03
            4848            5098     11.3988E-03     11.4668E-03
            4849             813     48.4684E-03     49.1937E-03
            4849             814     44.3240E-03     44.9866E-03
            4849            5081     44.4158E-03     45.4995E-03
            4849            5099     41.7813E-03     42.6060E-03
            4850            5081     44.4158E-03     45.4995E-03
            4850            5082     41.4161E-03     42.6206E-03
            4850            5099     41.7813E-03     42.6060E-03
            4850            5100     39.9927E-03     40.9087E-03
            4851            5082     41.4161E-03     42.6206E-03
            4851            5083     38.8572E-03     40.0797E-03
            4851            5100     39.9927E-03     40.9087E-03
            4851            5101     38.3705E-03     39.2117E-03
            4852            5083     38.8572E-03     40.0797E-03
            4852            5084     36.4939E-03     37.7159E-03
            4852            5101     38.3705E-03     39.2117E-03
            4852            5102     36.5977E-03     37.3143E-03
            4853            5084     36.4939E-03     37.7159E-03
            4853            5085     34.2859E-03     35.4401E-03
            4853            5102     36.5977E-03     37.3143E-03
            4853            5103     34.6300E-03     35.2751E-03
            4854            5085     34.2859E-03     35.4401E-03
            4854            5086     32.0994E-03     33.2050E-03
            4854            5103     34.6300E-03     35.2751E-03
            4854            5104     32.6019E-03     33.1698E-03
            4855            5086     32.0994E-03     33.2050E-03
            4855            5087     29.9647E-03     31.0219E-03
            4855            5104     32.6019E-03     33.1698E-03
            4855            5105     30.5119E-03     31.0351E-03
            4856            5087     29.9647E-03     31.0219E-03
            4856            5088     27.8488E-03     28.8708E-03
            4856            5105     30.5119E-03     31.0351E-03
            4856            5106     28.4257E-03     28.9123E-03
            4857            5088     27.8488E-03     28.8708E-03
            4857            5089     25.7612E-03     26.7579E-03
            4857            5106     28.4257E-03     28.9123E-03
            4857            5107     26.3435E-03     26.8088E-03
            4858            5089     25.7612E-03     26.7579E-03
            4858            5090     23.6961E-03     24.6764E-03
            4858            5107     26.3435E-03     26.8088E-03
            4858            5108     24.2839E-03     24.7377E-03
            4859            5090     23.6961E-03     24.6764E-03
            4859            5091     21.6551E-03     22.6295E-03
            4859            5108     24.2839E-03     24.7377E-03
            4859            5109     22.2493E-03     22.7033E-03
            4860            5091     21.6551E-03     22.6295E-03
            4860            5092     19.6525E-03     20.6258E-03
            4860            5109     22.2493E-03     22.7033E-03
            4860            5110     20.2420E-03     20.7129E-03
            4861            5092     19.6525E-03     20.6258E-03
            4861            5093     17.6919E-03     18.6737E-03
            4861            5110     20.2420E-03     20.7129E-03
            4861            5111     18.2796E-03     18.7816E-03
            4862            5093     17.6919E-03     18.6737E-03
            4862            5094     15.8358E-03     16.8092E-03
            4862            5111     18.2796E-03     18.7816E-03
            4862            5112     16.3729E-03     16.9313E-03
            4863            5094     15.8358E-03     16.8092E-03
            4863            5095     14.1347E-03     15.0464E-03
            4863            5112     16.3729E-03     16.9313E-03
            4863            5113     14.6058E-03     15.1995E-03
            4864            5095     14.1347E-03     15.0464E-03
            4864            5096     12.6962E-03     13.4855E-03
            4864            5113     14.6058E-03     15.1995E-03
            4864            5114     13.1229E-03     13.6312E-03
            4865            5096     12.6962E-03     13.4855E-03
            4865            5097     11.7487E-03     12.2127E-03
            4865            5114     13.1229E-03     13.6312E-03
            4865            5115     12.1351E-03     12.4488E-03
            4866            5097     11.7487E-03     12.2127E-03
            4866            5098     11.3988E-03     11.4668E-03
            4866            5115     12.1351E-03     12.4488E-03
            4866            5116     11.9625E-03     11.8233E-03
            4867             866     11.9792E-03     11.2172E-03
            4867             867     12.7542E-03     11.8222E-03
            4867            5098     11.3988E-03     11.4668E-03
            4867            5116     11.9625E-03     11.8233E-03
            4868             814     44.3240E-03     44.9866E-03
            4868             815     40.0972E-03     40.5097E-03
            4868            5099     41.7813E-03     42.6060E-03
            4868            5117     38.8546E-03     39.5117E-03
            4869            5099     41.7813E-03     42.6060E-03
            4869            5100     39.9927E-03     40.9087E-03
            4869            5117     38.8546E-03     39.5117E-03
            4869            5118     38.4230E-03     38.9433E-03
            4870            5100     39.9927E-03     40.9087E-03
            4870            5101     38.3705E-03     39.2117E-03
            4870            5118     38.4230E-03     38.9433E-03
            4870            5119     37.6415E-03     37.9586E-03
            4871            5101     38.3705E-03     39.2117E-03
            4871            5102     36.5977E-03     37.3143E-03
            4871            5119     37.6415E-03     37.9586E-03
            4871            5120     36.3170E-03     36.4940E-03
            4872            5102     36.5977E-03     37.3143E-03
            4872            5103     34.6300E-03     35.2751E-03
            4872            5120     36.3170E-03     36.4940E-03
            4872            5121     34.6581E-03     34.7228E-03
            4873            5103     34.6300E-03     35.2751E-03
            4873            5104     32.6019E-03     33.1698E-03
            4873            5121     34.6581E-03     34.7228E-03
            4873            5122     32.7676E-03     32.7767E-03
            4874            5104     32.6019E-03     33.1698E-03
            4874            5105     30.5119E-03     31.0351E-03
            4874            5122     32.7676E-03     32.7767E-03
            4874            5123     30.7905E-03     30.7554E-03
            4875            5105     30.5119E-03     31.0351E-03
            4875            5106     28.4257E-03     28.9123E-03
            4875            5123     30.7905E-03     30.7554E-03
            4875            5124     28.7631E-03     28.7072E-03
            4876            5106     28.4257E-03     28.9123E-03
            4876            5107     26.3435E-03     26.8088E-03
            4876            5124     28.7631E-03     28.7072E-03
            4876            5125     26.7377E-03     26.6679E-03
            4877            5107     26.3435E-03     26.8088E-03
            4877            5108     24.2839E-03     24.7377E-03
            4877            5125     26.7377E-03     26.6679E-03
            4877            5126     24.7230E-03     24.6517E-03
            4878            5108     24.2839E-03     24.7377E-03
            4878            5109     22.2493E-03     22.7033E-03
            4878            5126     24.7230E-03     24.6517E-03
            4878            5127     22.7324E-03     22.6699E-03
            4879            5109     22.2493E-03     22.7033E-03
            4879            5110     20.2420E-03     20.7129E-03
            4879            5127     22.7324E-03     22.6699E-03
            4879            5128     20.7663E-03     20.7323E-03
            4880            5110     20.2420E-03     20.7129E-03
            4880            5111     18.2796E-03     18.7816E-03
            4880            5128     20.7663E-03     20.7323E-03
            4880            5129     18.8280E-03     18.8535E-03
            4881            5111     18.2796E-03     18.7816E-03
            4881            5112     16.3729E-03     16.9313E-03
            4881            5129     18.8280E-03     18.8535E-03
            4881            5130     16.9254E-03     17.0561E-03
            4882            5112     16.3729E-03     16.9313E-03
            4882            5113     14.6058E-03     15.1995E-03
            4882            5130     16.9254E-03     17.0561E-03
            4882            5131     15.0993E-03     15.4051E-03
            4883            5113     14.6058E-03     15.1995E-03
            4883            5114     13.1229E-03     13.6312E-03
            4883            5131     15.0993E-03     15.4051E-03
            4883            5132     13.5558E-03     13.9480E-03
            4884            5114     13.1229E-03     13.6312E-03
            4884            5115     12.1351E-03     12.4488E-03
            4884            5132     13.5558E-03     13.9480E-03
            4884            5133     12.5931E-03     12.7917E-03
            4885            5115     12.1351E-03     12.4488E-03
            4885            5116     11.9625E-03     11.8233E-03
            4885            5133     12.5931E-03     12.7917E-03
            4885            5134     12.5160E-03     12.4377E-03
            4886             867     12.7542E-03     11.8222E-03
            4886             868     13.5157E-03     12.9660E-03
            4886            5116     11.9625E-03     11.8233E-03
            4886            5134     12.5160E-03     12.4377E-03
            4887             815     40.0972E-03     40.5097E-03
            4887             816     35.5610E-03     35.8794E-03
            4887            5117     38.8546E-03     39.5117E-03
            4887            5135     36.1520E-03     36.3732E-03
            4888            5117     38.8546E-03     39.5117E-03
            4888            5118     38.4230E-03     38.9433E-03
            4888            5135     36.1520E-03     36.3732E-03
            4888            5136     36.8956E-03     36.7821E-03
            4889            5118     38.4230E-03     38.9433E-03
            4889            5119     37.6415E-03     37.9586E-03
            4889            5136     36.8956E-03     36.7821E-03
            4889            5137     36.6427E-03     36.2942E-03
            4890            5119     37.6415E-03     37.9586E-03
            4890            5120     36.3170E-03     36.4940E-03
            4890            5137     36.6427E-03     36.2942E-03
            4890            5138     35.6901E-03     35.2045E-03
            4891            5120     36.3170E-03     36.4940E-03
            4891            5121     34.6581E-03     34.7228E-03
            4891            5138     35.6901E-03     35.2045E-03
            4891            5139     34.2609E-03     33.7066E-03
            4892            5121     34.6581E-03     34.7228E-03
            4892            5122     32.7676E-03     32.7767E-03
            4892            5139     34.2609E-03     33.7066E-03
            4892            5140     32.5696E-03     31.9771E-03
            4893            5122     32.7676E-03     32.7767E-03
            4893            5123     30.7905E-03     30.7554E-03
            4893            5140     32.5696E-03     31.9771E-03
            4893            5141     30.7290E-03     30.1266E-03
            4894            5123     30.7905E-03     30.7554E-03
            4894            5124     28.7631E-03     28.7072E-03
            4894            5141     30.7290E-03     30.1266E-03
            4894            5142     28.8297E-03     28.2227E-03
            4895            5124     28.7631E-03     28.7072E-03
            4895            5125     26.7377E-03     26.6679E-03
            4895            5142     28.8297E-03     28.2227E-03
            4895            5143     26.9065E-03     26.3064E-03
            4896            5125     26.7377E-03     26.6679E-03
            4896            5126     24.7230E-03     24.6517E-03
            4896            5143     26.9065E-03     26.3064E-03
            4896            5144     24.9914E-03     24.4006E-03
            4897            5126     24.7230E-03     24.6517E-03
            4897            5127     22.7324E-03     22.6699E-03
            4897            5144     24.9914E-03     24.4006E-03
            4897            5145     23.0908E-03     22.5214E-03
            4898            5127     22.7324E-03     22.6699E-03
            4898            5128     20.7663E-03     20.7323E-03
            4898            5145     23.0908E-03     22.5214E-03
            4898            5146     21.2153E-03     20.6802E-03
            4899            5128     20.7663E-03     20.7323E-03
            4899            5129     18.8280E-03     18.8535E-03
            4899            5146     21.2153E-03     20.6802E-03
            4899            5147     19.3553E-03     18.8946E-03
            4900            5129     18.8280E-03     18.8535E-03
            4900            5130     16.9254E-03     17.0561E-03
            4900            5147     19.3553E-03     18.8946E-03
            4900            5148     17.5243E-03     17.1977E-03
            4901            5130     16.9254E-03     17.0561E-03
            4901            5131     15.0993E-03     15.4051E-03
            4901            5148     17.5243E-03     17.1977E-03
            4901            5149     15.7158E-03     15.6469E-03
            4902            5131     15.0993E-03     15.4051E-03
            4902            5132     13.5558E-03     13.9480E-03
            4902            5149     15.7158E-03     15.6469E-03
            4902            5150     14.0448E-03     14.4027E-03
            4903            5132     13.5558E-03     13.9480E-03
            4903            5133     12.5931E-03     12.7917E-03
            4903            5150     14.0448E-03     14.4027E-03
            4903            5151     13.0723E-03     13.4948E-03
            4904            5133     12.5931E-03     12.7917E-03
            4904            5134     12.5160E-03     12.4377E-03
            4904            5151     13.0723E-03     13.4948E-03
            4904            5152     13.1997E-03     13.0812E-03
            4905             868     13.5157E-03     12.9660E-03
            4905             869     14.4154E-03     13.7715E-03
            4905            5134     12.5160E-03     12.4377E-03
            4905            5152     13.1997E-03     13.0812E-03
            4906             816     35.5610E-03     35.8794E-03
            4906             817     31.5236E-03     31.3159E-03
            4906            5135     36.1520E-03     36.3732E-03
            4906            5153     34.1150E-03     33.3765E-03
            4907            5135     36.1520E-03     36.3732E-03
            4907            5136     36.8956E-03     36.7821E-03
            4907            5153     34.1150E-03     33.3765E-03
            4907            5154     35.2845E-03     34.2224E-03
            4908            5136     36.8956E-03     36.7821E-03
            4908            5137     36.6427E-03     36.2942E-03
            4908            5154     35.2845E-03     34.2224E-03
            4908            5155     35.3165E-03     34.1391E-03
            4909            5137     36.6427E-03     36.2942E-03
            4909            5138     35.6901E-03     35.2045E-03
            4909            5155     35.3165E-03     34.1391E-03
            4909            5156     34.6192E-03     33.3900E-03
            4910            5138     35.6901E-03     35.2045E-03
            4910            5139     34.2609E-03     33.7066E-03
            4910            5156     34.6192E-03     33.3900E-03
            4910            5157     33.4335E-03     32.2082E-03
            4911            5139     34.2609E-03     33.7066E-03
            4911            5140     32.5696E-03     31.9771E-03
            4911            5157     33.4335E-03     32.2082E-03
            4911            5158     31.9715E-03     30.7668E-03
            4912            5140     32.5696E-03     31.9771E-03
            4912            5141     30.7290E-03     30.1266E-03
            4912            5158     31.9715E-03     30.7668E-03
            4912            5159     30.3422E-03     29.1633E-03
            4913            5141     30.7290E-03     30.1266E-03
            4913            5142     28.8297E-03     28.2227E-03
            4913            5159     30.3422E-03     29.1633E-03
            4913            5160     28.6254E-03     27.4779E-03
            4914            5142     28.8297E-03     28.2227E-03
            4914            5143     26.9065E-03     26.3064E-03
            4914            5160     28.6254E-03     27.4779E-03
            4914            5161     26.8694E-03     25.7497E-03
            4915            5143     26.9065E-03     26.3064E-03
            4915            5144     24.9914E-03     24.4006E-03
            4915            5161     26.8694E-03     25.7497E-03
            4915            5162     25.1010E-03     24.0131E-03
            4916            5144     24.9914E-03     24.4006E-03
            4916            5145     23.0908E-03     22.5214E-03
            4916            5162     25.1010E-03     24.0131E-03
            4916            5163     23.3418E-03     22.2862E-03
            4917            5145     23.0908E-03     22.5214E-03
            4917            5146     21.2153E-03     20.6802E-03
            4917            5163     23.3418E-03     22.2862E-03
            4917            5164     21.5972E-03     20.5882E-03
            4918            5146     21.2153E-03     20.6802E-03
            4918            5147     19.3553E-03     18.8946E-03
            4918            5164     21.5972E-03     20.5882E-03
            4918            5165     19.8820E-03     18.9398E-03
            4919            5147     19.3553E-03     18.8946E-03
            4919            5148     17.5243E-03     17.1977E-03
            4919            5165     19.8820E-03     18.9398E-03
            4919            5166     18.1811E-03     17.3768E-03
            4920            5148     17.5243E-03     17.1977E-03
            4920            5149     15.7158E-03     15.6469E-03
            4920            5166     18.1811E-03     17.3768E-03
            4920            5167     16.5243E-03     15.9668E-03
            4921            5149     15.7158E-03     15.6469E-03
            4921            5150     14.0448E-03     14.4027E-03
            4921            5167     16.5243E-03     15.9668E-03
            4921            5168     14.8663E-03     14.8743E-03
            4922            5150     14.0448E-03     14.4027E-03
            4922            5151     13.0723E-03     13.4948E-03
            4922            5168     14.8663E-03     14.8743E-03
            4922            5169     13.5107E-03     14.4276E-03
            4923            5151     13.0723E-03     13.4948E-03
            4923            5152     13.1997E-03     13.0812E-03
            4923            5169     13.5107E-03     14.4276E-03
            4923            5170     13.8373E-03     14.5726E-03
            4924             869     14.4154E-03     13.7715E-03
            4924             870     15.6669E-03     15.7142E-03
            4924            5152     13.1997E-03     13.0812E-03
            4924            5170     13.8373E-03     14.5726E-03
            4925             817     31.5236E-03     31.3159E-03
            4925             818     29.5374E-03     27.6359E-03
            4925            5153     34.1150E-03     33.3765E-03
            4925            5171     32.3416E-03     30.0950E-03
            4926            5153     34.1150E-03     33.3765E-03
            4926            5154     35.2845E-03     34.2224E-03
            4926            5171     32.3416E-03     30.0950E-03
            4926            5172     33.3364E-03     31.1438E-03
            4927            5154     35.2845E-03     34.2224E-03
            4927            5155     35.3165E-03     34.1391E-03
            4927            5172     33.3364E-03     31.1438E-03
            4927            5173     33.5496E-03     31.4372E-03
            4928            5155     35.3165E-03     34.1391E-03
            4928            5156     34.6192E-03     33.3900E-03
            4928            5173     33.5496E-03     31.4372E-03
            4928            5174     33.0720E-03     31.0768E-03
            4929            5156     34.6192E-03     33.3900E-03
            4929            5157     33.4335E-03     32.2082E-03
            4929            5174     33.0720E-03     31.0768E-03
            4929            5175     32.2092E-03     30.3130E-03
            4930            5157     33.4335E-03     32.2082E-03
            4930            5158     31.9715E-03     30.7668E-03
            4930            5175     32.2092E-03     30.3130E-03
            4930            5176     31.0457E-03     29.2363E-03
            4931            5158     31.9715E-03     30.7668E-03
            4931            5159     30.3422E-03     29.1633E-03
            4931            5176     31.0457E-03     29.2363E-03
            4931            5177     29.7028E-03     27.9715E-03
            4932            5159     30.3422E-03     29.1633E-03
            4932            5160     28.6254E-03     27.4779E-03
            4932            5177     29.7028E-03     27.9715E-03
            4932            5178     28.2353E-03     26.5683E-03
            4933            5160     28.6254E-03     27.4779E-03
            4933            5161     26.8694E-03     25.7497E-03
            4933            5178     28.2353E-03     26.5683E-03
            4933            5179     26.6961E-03     25.0908E-03
            4934            5161     26.8694E-03     25.7497E-03
            4934            5162     25.1010E-03     24.0131E-03
            4934            5179     26.6961E-03     25.0908E-03
            4934            5180     25.1182E-03     23.5690E-03
            4935            5162     25.1010E-03     24.0131E-03
            4935            5163     23.3418E-03     22.2862E-03
            4935            5180     25.1182E-03     23.5690E-03
            4935            5181     23.5290E-03     22.0361E-03
            4936            5163     23.3418E-03     22.2862E-03
            4936            5164     21.5972E-03     20.5882E-03
            4936            5181     23.5290E-03     22.0361E-03
            4936            5182     21.9503E-03     20.5189E-03
            4937            5164     21.5972E-03     20.5882E-03
            4937            5165     19.8820E-03     18.9398E-03
            4937            5182     21.9503E-03     20.5189E-03
            4937            5183     20.4024E-03     19.0409E-03
            4938            5165     19.8820E-03     18.9398E-03
            4938            5166     18.1811E-03     17.3768E-03
            4938            5183     20.4024E-03     19.0409E-03
            4938            5184     18.9052E-03     17.6481E-03
            4939            5166     18.1811E-03     17.3768E-03
            4939            5167     16.5243E-03     15.9668E-03
            4939            5184     18.9052E-03     17.6481E-03
            4939            5185     17.4751E-03     16.3941E-03
            4940            5167     16.5243E-03     15.9668E-03
            4940            5168     14.8663E-03     14.8743E-03
            4940            5185     17.4751E-03     16.3941E-03
            4940            5186     16.1262E-03     15.4174E-03
            4941            5168     14.8663E-03     14.8743E-03
            4941            5169     13.5107E-03     14.4276E-03
            4941            5186     16.1262E-03     15.4174E-03
            4941            5187     14.7645E-03     15.0841E-03
            4942            5169     13.5107E-03     14.4276E-03
            4942            5170     13.8373E-03     14.5726E-03
            4942            5187     14.7645E-03     15.0841E-03
            4942            5188     14.0923E-03     16.2490E-03
            4943             870     15.6669E-03     15.7142E-03
            4943             871     15.5980E-03     18.4990E-03
            4943            5170     13.8373E-03     14.5726E-03
            4943            5188     14.0923E-03     16.2490E-03
            4944             818     29.5374E-03     27.6359E-03
            4944             819     18.2405E-03     19.4961E-03
            4944            5171     32.3416E-03     30.0950E-03
            4944            5189     18.9114E-03     19.8525E-03
            4945            5171     32.3416E-03     30.0950E-03
            4945            5172     33.3364E-03     31.1438E-03
            4945            5189     18.9114E-03     19.8525E-03
            4945            5190     19.2959E-03     20.3221E-03
            4946            5172     33.3364E-03     31.1438E-03
            4946            5173     33.5496E-03     31.4372E-03
            4946            5190     19.2959E-03     20.3221E-03
            4946            5191     19.2438E-03     20.4041E-03
            4947            5173     33.5496E-03     31.4372E-03
            4947            5174     33.0720E-03     31.0768E-03
            4947            5191     19.2438E-03     20.4041E-03
            4947            5192     18.9697E-03     20.1832E-03
            4948            5174     33.0720E-03     31.0768E-03
            4948            5175     32.2092E-03     30.3130E-03
            4948            5192     18.9697E-03     20.1832E-03
            4948            5193     18.4542E-03     19.7235E-03
            4949            5175     32.2092E-03     30.3130E-03
            4949            5176     31.0457E-03     29.2363E-03
            4949            5193     18.4542E-03     19.7235E-03
            4949            5194     17.8413E-03     19.1144E-03
            4950            5176     31.0457E-03     29.2363E-03
            4950            5177     29.7028E-03     27.9715E-03
            4950            5194     17.8413E-03     19.1144E-03
            4950            5195     17.1160E-03     18.3880E-03
            4951            5177     29.7028E-03     27.9715E-03
            4951            5178     28.2353E-03     26.5683E-03
            4951            5195     17.1160E-03     18.3880E-03
            4951            5196     16.3477E-03     17.5896E-03
            4952            5178     28.2353E-03     26.5683E-03
            4952            5179     26.6961E-03     25.0908E-03
            4952            5196     16.3477E-03     17.5896E-03
            4952            5197     15.5346E-03     16.7393E-03
            4953            5179     26.6961E-03     25.0908E-03
            4953            5180     25.1182E-03     23.5690E-03
            4953            5197     15.5346E-03     16.7393E-03
            4953            5198     14.7150E-03     15.8622E-03
            4954            5180     25.1182E-03     23.5690E-03
            4954            5181     23.5290E-03     22.0361E-03
            4954            5198     14.7150E-03     15.8622E-03
            4954            5199     13.8913E-03     14.9727E-03
            4955            5181     23.5290E-03     22.0361E-03
            4955            5182     21.9503E-03     20.5189E-03
            4955            5199     13.8913E-03     14.9727E-03
            4955            5200     13.0926E-03     14.0910E-03
            4956            5182     21.9503E-03     20.5189E-03
            4956            5183     20.4024E-03     19.0409E-03
            4956            5200     13.0926E-03     14.0910E-03
            4956            5201     12.3157E-03     13.2224E-03
            4957            5183     20.4024E-03     19.0409E-03
            4957            5184     18.9052E-03     17.6481E-03
            4957            5201     12.3157E-03     13.2224E-03
            4957            5202     11.6106E-03     12.4012E-03
            4958            5184     18.9052E-03     17.6481E-03
            4958            5185     17.4751E-03     16.3941E-03
            4958            5202     11.6106E-03     12.4012E-03
            4958            5203     10.9365E-03     11.6534E-03
            4959            5185     17.4751E-03     16.3941E-03
            4959            5186     16.1262E-03     15.4174E-03
            4959            5203     10.9365E-03     11.6534E-03
            4959            5204     10.4898E-03     11.0580E-03
            4960            5186     16.1262E-03     15.4174E-03
            4960            5187     14.7645E-03     15.0841E-03
            4960            5204     10.4898E-03     11.0580E-03
            4960            5205     10.0474E-03     10.8776E-03
            4961            5187     14.7645E-03     15.0841E-03
            4961            5188     14.0923E-03     16.2490E-03
            4961            5205     10.0474E-03     10.8776E-03
            4961            5206     9.42502E-03     12.5746E-03
            4962             871     15.5980E-03     18.4990E-03
            4962             872     12.0841E-03     15.3703E-03
            4962            5188     14.0923E-03     16.2490E-03
            4962            5206     9.42502E-03     12.5746E-03
            4963             819     18.2405E-03     19.4961E-03
            4963             820     8.28409E-03     12.0690E-03
            4963            5189     18.9114E-03     19.8525E-03
            4963            5207     7.50071E-03     10.7912E-03
            4964            5189     18.9114E-03     19.8525E-03
            4964            5190     19.2959E-03     20.3221E-03
            4964            5207     7.50071E-03     10.7912E-03
            4964            5208     7.22154E-03     10.4705E-03
            4965            5190     19.2959E-03     20.3221E-03
            4965            5191     19.2438E-03     20.4041E-03
            4965            5208     7.22154E-03     10.4705E-03
            4965            5209     6.78735E-03     10.1006E-03
            4966            5191     19.2438E-03     20.4041E-03
            4966            5192     18.9697E-03     20.1832E-03
            4966            5209     6.78735E-03     10.1006E-03
            4966            5210     6.51928E-03     9.76950E-03
            4967            5192     18.9697E-03     20.1832E-03
            4967            5193     18.4542E-03     19.7235E-03
            4967            5210     6.51928E-03     9.76950E-03
            4967            5211     6.17624E-03     9.38909E-03
            4968            5193     18.4542E-03     19.7235E-03
            4968            5194     17.8413E-03     19.1144E-03
            4968            5211     6.17624E-03     9.38909E-03
            4968            5212     5.90169E-03     9.04439E-03
            4969            5194     17.8413E-03     19.1144E-03
            4969            5195     17.1160E-03     18.3880E-03
            4969            5212     5.90169E-03     9.04439E-03
            4969            5213     5.61708E-03     8.68540E-03
            4970            5195     17.1160E-03     18.3880E-03
            4970            5196     16.3477E-03     17.5896E-03
            4970            5213     5.61708E-03     8.68540E-03
            4970            5214     5.36831E-03     8.34426E-03
            4971            5196     16.3477E-03     17.5896E-03
            4971            5197     15.5346E-03     16.7393E-03
            4971            5214     5.36831E-03     8.34426E-03
            4971            5215     5.12839E-03     8.00117E-03
            4972            5197     15.5346E-03     16.7393E-03
            4972            5198     14.7150E-03     15.8622E-03
            4972            5215     5.12839E-03     8.00117E-03
            4972            5216     4.91587E-03     7.66818E-03
            4973            5198     14.7150E-03     15.8622E-03
            4973            5199     13.8913E-03     14.9727E-03
            4973            5216     4.91587E-03     7.66818E-03
            4973            5217     4.72094E-03     7.33826E-03
            4974            5199     13.8913E-03     14.9727E-03
            4974            5200     13.0926E-03     14.0910E-03
            4974            5217     4.72094E-03     7.33826E-03
            4974            5218     4.55398E-03     7.01504E-03
            4975            5200     13.0926E-03     14.0910E-03
            4975            5201     12.3157E-03     13.2224E-03
            4975            5218     4.55398E-03     7.01504E-03
            4975            5219     4.40573E-03     6.69458E-03
            4976            5201     12.3157E-03     13.2224E-03
            4976            5202     11.6106E-03     12.4012E-03
            4976            5219     4.40573E-03     6.69458E-03
            4976            5220     4.28433E-03     6.37804E-03
            4977            5202     11.6106E-03     12.4012E-03
            4977            5203     10.9365E-03     11.6534E-03
            4977            5220     4.28433E-03     6.37804E-03
            4977            5221     4.18750E-03     6.04814E-03
            4978            5203     10.9365E-03     11.6534E-03
            4978            5204     10.4898E-03     11.0580E-03
            4978            5221     4.18750E-03     6.04814E-03
            4978            5222     4.17882E-03     5.79645E-03
            4979            5204     10.4898E-03     11.0580E-03
            4979            5205     10.0474E-03     10.8776E-03
            4979            5222     4.17882E-03     5.79645E-03
            4979            5223     4.36444E-03     5.90670E-03
            4980            5205     10.0474E-03     10.8776E-03
            4980            5206     9.42502E-03     12.5746E-03
            4980            5223     4.36444E-03     5.90670E-03
            4980            5224     5.92341E-03     7.38489E-03
            4981             872     12.0841E-03     15.3703E-03
            4981             873     10.1215E-03     10.2108E-03
            4981            5206     9.42502E-03     12.5746E-03
            4981            5224     5.92341E-03     7.38489E-03
            4982             820     8.28409E-03     12.0690E-03
            4982             821     9.75573E-03     9.93084E-03
            4982            5207     7.50071E-03     10.7912E-03
            4982            5225     9.69428E-03     9.61061E-03
            4983            5207     7.50071E-03     10.7912E-03
            4983            5208     7.22154E-03     10.4705E-03
            4983            5225     9.69428E-03     9.61061E-03
            4983            5226     8.89914E-03     9.05417E-03
            4984            5208     7.22154E-03     10.4705E-03
            4984            5209     6.78735E-03     10.1006E-03
            4984            5226     8.89914E-03     9.05417E-03
            4984            5227     8.50398E-03     8.61283E-03
            4985            5209     6.78735E-03     10.1006E-03
            4985            5210     6.51928E-03     9.76950E-03
            4985            5227     8.50398E-03     8.61283E-03
            4985            5228     8.10191E-03     8.22196E-03
            4986            5210     6.51928E-03     9.76950E-03
            4986            5211     6.17624E-03     9.38909E-03
            4986            5228     8.10191E-03     8.22196E-03
            4986            5229     7.77929E-03     7.90126E-03
            4987            5211     6.17624E-03     9.38909E-03
            4987            5212     5.90169E-03     9.04439E-03
            4987            5229     7.77929E-03     7.90126E-03
            4987            5230     7.44988E-03     7.57170E-03
            4988            5212     5.90169E-03     9.04439E-03
            4988            5213     5.61708E-03     8.68540E-03
            4988            5230     7.44988E-03     7.57170E-03
            4988            5231     7.14421E-03     7.26390E-03
            4989            5213     5.61708E-03     8.68540E-03
            4989            5214     5.36831E-03     8.34426E-03
            4989            5231     7.14421E-03     7.26390E-03
            4989            5232     6.83764E-03     6.95598E-03
            4990            5214     5.36831E-03     8.34426E-03
            4990            5215     5.12839E-03     8.00117E-03
            4990            5232     6.83764E-03     6.95598E-03
            4990            5233     6.54762E-03     6.66296E-03
            4991            5215     5.12839E-03     8.00117E-03
            4991            5216     4.91587E-03     7.66818E-03
            4991            5233     6.54762E-03     6.66296E-03
            4991            5234     6.26381E-03     6.37571E-03
            4992            5216     4.91587E-03     7.66818E-03
            4992            5217     4.72094E-03     7.33826E-03
            4992            5234     6.26381E-03     6.37571E-03
            4992            5235     5.99692E-03     6.10578E-03
            4993            5217     4.72094E-03     7.33826E-03
            4993            5218     4.55398E-03     7.01504E-03
            4993            5235     5.99692E-03     6.10578E-03
            4993            5236     5.74009E-03     5.84126E-03
            4994            5218     4.55398E-03     7.01504E-03
            4994            5219     4.40573E-03     6.69458E-03
            4994            5236     5.74009E-03     5.84126E-03
            4994            5237     5.50218E-03     5.60307E-03
            4995            5219     4.40573E-03     6.69458E-03
            4995            5220     4.28433E-03     6.37804E-03
            4995            5237     5.50218E-03     5.60307E-03
            4995            5238     5.26556E-03     5.35764E-03
            4996            5220     4.28433E-03     6.37804E-03
            4996            5221     4.18750E-03     6.04814E-03
            4996            5238     5.26556E-03     5.35764E-03
            4996            5239     5.06735E-03     5.11242E-03
            4997            5221     4.18750E-03     6.04814E-03
            4997            5222     4.17882E-03     5.79645E-03
            4997            5239     5.06735E-03     5.11242E-03
            4997            5240     4.80535E-03     4.92524E-03
            4998            5222     4.17882E-03     5.79645E-03
            4998            5223     4.36444E-03     5.90670E-03
            4998            5240     4.80535E-03     4.92524E-03
            4998            5241     4.95753E-03     5.17912E-03
            4999            5223     4.36444E-03     5.90670E-03
            4999            5224     5.92341E-03     7.38489E-03
            4999            5241     4.95753E-03     5.17912E-03
            4999            5242     7.35956E-03     6.30362E-03
            5000             873     10.1215E-03     10.2108E-03
            5000             874     11.0967E-03     9.04155E-03
            5000            5224     5.92341E-03     7.38489E-03
            5000            5242     7.35956E-03     6.30362E-03
            5001             821     9.75573E-03     9.93084E-03
            5001             822     9.90553E-03     6.69227E-03
            5001            5225     9.69428E-03     9.61061E-03
            5001            5243     11.0386E-03     7.69980E-03
            5002            5225     9.69428E-03     9.61061E-03
            5002            5226     8.89914E-03     9.05417E-03
            5002            5243     11.0386E-03     7.69980E-03
            5002            5244     10.5441E-03     7.47584E-03
            5003            5226     8.89914E-03     9.05417E-03
            5003            5227     8.50398E-03     8.61283E-03
            5003            5244     10.5441E-03     7.47584E-03
            5003            5245     10.1739E-03     7.13220E-03
            5004            5227     8.50398E-03     8.61283E-03
            5004            5228     8.10191E-03     8.22196E-03
            5004            5245     10.1739E-03     7.13220E-03
            5004            5246     9.78774E-03     6.84227E-03
            5005            5228     8.10191E-03     8.22196E-03
            5005            5229     7.77929E-03     7.90126E-03
            5005            5246     9.78774E-03     6.84227E-03
            5005            5247     9.45529E-03     6.57561E-03
            5006            5229     7.77929E-03     7.90126E-03
            5006            5230     7.44988E-03     7.57170E-03
            5006            5247     9.45529E-03     6.57561E-03
            5006            5248     9.12167E-03     6.32397E-03
            5007            5230     7.44988E-03     7.57170E-03
            5007            5231     7.14421E-03     7.26390E-03
            5007            5248     9.12167E-03     6.32397E-03
            5007            5249     8.79481E-03     6.08044E-03
            5008            5231     7.14421E-03     7.26390E-03
            5008            5232     6.83764E-03     6.95598E-03
            5008            5249     8.79481E-03     6.08044E-03
            5008            5250     8.46843E-03     5.85013E-03
            5009            5232     6.83764E-03     6.95598E-03
            5009            5233     6.54762E-03     6.66296E-03
            5009            5250     8.46843E-03     5.85013E-03
            5009            5251     8.14634E-03     5.63209E-03
            5010            5233     6.54762E-03     6.66296E-03
            5010            5234     6.26381E-03     6.37571E-03
            5010            5251     8.14634E-03     5.63209E-03
            5010            5252     7.83081E-03     5.43461E-03
            5011            5234     6.26381E-03     6.37571E-03
            5011            5235     5.99692E-03     6.10578E-03
            5011            5252     7.83081E-03     5.43461E-03
            5011            5253     7.51998E-03     5.25321E-03
            5012            5235     5.99692E-03     6.10578E-03
            5012            5236     5.74009E-03     5.84126E-03
            5012            5253     7.51998E-03     5.25321E-03
            5012            5254     7.22225E-03     5.10281E-03
            5013            5236     5.74009E-03     5.84126E-03
            5013            5237     5.50218E-03     5.60307E-03
            5013            5254     7.22225E-03     5.10281E-03
            5013            5255     6.92772E-03     4.96681E-03
            5014            5237     5.50218E-03     5.60307E-03
            5014            5238     5.26556E-03     5.35764E-03
            5014            5255     6.92772E-03     4.96681E-03
            5014            5256     6.66272E-03     4.87585E-03
            5015            5238     5.26556E-03     5.35764E-03
            5015            5239     5.06735E-03     5.11242E-03
            5015            5256     6.66272E-03     4.87585E-03
            5015            5257     6.39254E-03     4.80446E-03
            5016            5239     5.06735E-03     5.11242E-03
            5016            5240     4.80535E-03     4.92524E-03
            5016            5257     6.39254E-03     4.80446E-03
            5016            5258     6.20887E-03     4.85778E-03
            5017            5240     4.80535E-03     4.92524E-03
            5017            5241     4.95753E-03     5.17912E-03
            5017            5258     6.20887E-03     4.85778E-03
            5017            5259     6.13926E-03     5.25383E-03
            5018            5241     4.95753E-03     5.17912E-03
            5018            5242     7.35956E-03     6.30362E-03
            5018            5259     6.13926E-03     5.25383E-03
            5018            5260     6.90058E-03     7.06355E-03
            5019             874     11.0967E-03     9.04155E-03
            5019             875     10.2129E-03     10.3470E-03
            5019            5242     7.35956E-03     6.30362E-03
            5019            5260     6.90058E-03     7.06355E-03
            5020              36     5.23019E-03     2.89028E-03
            5020             822     9.90553E-03     6.69227E-03
            5020             893     5.98308E-03     3.59410E-03
            5020            5243     11.0386E-03     7.69980E-03
            5021             892     6.07779E-03     3.71902E-03
            5021             893     5.98308E-03     3.59410E-03
            5021            5243     11.0386E-03     7.69980E-03
            5021            5244     10.5441E-03     7.47584E-03
            5022             891     5.81311E-03     3.57752E-03
            5022             892     6.07779E-03     3.71902E-03
            5022            5244     10.5441E-03     7.47584E-03
            5022            5245     10.1739E-03     7.13220E-03
            5023             890     5.68138E-03     3.50653E-03
            5023             891     5.81311E-03     3.57752E-03
            5023            5245     10.1739E-03     7.13220E-03
            5023            5246     9.78774E-03     6.84227E-03
            5024             889     5.48127E-03     3.35716E-03
            5024             890     5.68138E-03     3.50653E-03
            5024            5246     9.78774E-03     6.84227E-03
            5024            5247     9.45529E-03     6.57561E-03
            5025             888     5.32306E-03     3.26515E-03
            5025             889     5.48127E-03     3.35716E-03
            5025            5247     9.45529E-03     6.57561E-03
            5025            5248     9.12167E-03     6.32397E-03
            5026             887     5.13978E-03     3.14540E-03
            5026             888     5.32306E-03     3.26515E-03
            5026            5248     9.12167E-03     6.32397E-03
            5026            5249     8.79481E-03     6.08044E-03
            5027             886     4.97167E-03     3.05249E-03
            5027             887     5.13978E-03     3.14540E-03
            5027            5249     8.79481E-03     6.08044E-03
            5027            5250     8.46843E-03     5.85013E-03
            5028             885     4.79581E-03     2.95567E-03
            5028             886     4.97167E-03     3.05249E-03
            5028            5250     8.46843E-03     5.85013E-03
            5028            5251     8.14634E-03     5.63209E-03
            5029             884     4.62818E-03     2.87940E-03
            5029             885     4.79581E-03     2.95567E-03
            5029            5251     8.14634E-03     5.63209E-03
            5029            5252     7.83081E-03     5.43461E-03
            5030             883     4.45973E-03     2.80809E-03
            5030             884     4.62818E-03     2.87940E-03
            5030            5252     7.83081E-03     5.43461E-03
            5030            5253     7.51998E-03     5.25321E-03
            5031             882     4.29941E-03     2.76126E-03
            5031             883     4.45973E-03     2.80809E-03
            5031            5253     7.51998E-03     5.25321E-03
            5031            5254     7.22225E-03     5.10281E-03
            5032             881     4.14043E-03     2.71721E-03
            5032             882     4.29941E-03     2.76126E-03
            5032            5254     7.22225E-03     5.10281E-03
            5032            5255     6.92772E-03     4.96681E-03
            5033             880     3.99859E-03     2.71346E-03
            5033             881     4.14043E-03     2.71721E-03
            5033            5255     6.92772E-03     4.96681E-03
            5033            5256     6.66272E-03     4.87585E-03
            5034             879     3.85654E-03     2.72461E-03
            5034             880     3.99859E-03     2.71346E-03
            5034            5256     6.66272E-03     4.87585E-03
            5034            5257     6.39254E-03     4.80446E-03
            5035             878     3.79926E-03     2.82507E-03
            5035             879     3.85654E-03     2.72461E-03
            5035            5257     6.39254E-03     4.80446E-03
            5035            5258     6.20887E-03     4.85778E-03
            5036             877     3.66761E-03     3.08416E-03
            5036             878     3.79926E-03     2.82507E-03
            5036            5258     6.20887E-03     4.85778E-03
            5036            5259     6.13926E-03     5.25383E-03
            5037             876     3.41558E-03     4.23558E-03
            5037             877     3.66761E-03     3.08416E-03
            5037            5259     6.13926E-03     5.25383E-03
            5037            5260     6.90058E-03     7.06355E-03
            5038              37     4.91635E-03     6.04759E-03
            5038             875     10.2129E-03     10.3470E-03
            5038             876     3.41558E-03     4.23558E-03
            5038            5260     6.90058E-03     7.06355E-03
            5039              37     4.91635E-03     6.04759E-03
            5039             894     7.03143E-03     7.21362E-03
            5039             941     568.651E-06     636.833E-06
            5039            5261     569.519E-06     631.032E-06
            5040             894     7.03143E-03     7.21362E-03
            5040             895     7.67172E-03     7.60391E-03
            5040            5261     569.519E-06     631.032E-06
            5040            5262     575.291E-06     620.661E-06
            5041             895     7.67172E-03     7.60391E-03
            5041             896     7.92777E-03     7.81328E-03
            5041            5262     575.291E-06     620.661E-06
            5041            5263     583.352E-06     619.080E-06
            5042             896     7.92777E-03     7.81328E-03
            5042             897     8.08131E-03     7.94233E-03
            5042            5263     583.352E-06     619.080E-06
            5042            5264     587.230E-06     626.438E-06
            5043             897     8.08131E-03     7.94233E-03
            5043             898     8.16816E-03     7.92066E-03
            5043            5264     587.230E-06     626.438E-06
            5043            5265     590.158E-06     636.276E-06
            5044             898     8.16816E-03     7.92066E-03
            5044             899     8.26248E-03     7.93699E-03
            5044            5265     590.158E-06     636.276E-06
            5044            5266     594.626E-06     647.249E-06
            5045             899     8.26248E-03     7.93699E-03
            5045             900     8.34561E-03     7.93939E-03
            5045            5266     594.626E-06     647.249E-06
            5045            5267     600.558E-06     658.987E-06
            5046             900     8.34561E-03     7.93939E-03
            5046             901     8.44408E-03     7.95679E-03
            5046            5267     600.558E-06     658.987E-06
            5046            5268     608.590E-06     671.732E-06
            5047             901     8.44408E-03     7.95679E-03
            5047             902     8.54590E-03     7.97868E-03
            5047            5268     608.590E-06     671.732E-06
            5047            5269     618.190E-06     685.556E-06
            5048             902     8.54590E-03     7.97868E-03
            5048             903     8.65331E-03     8.00733E-03
            5048            5269     618.190E-06     685.556E-06
            5048            5270     629.709E-06     700.245E-06
            5049             903     8.65331E-03     8.00733E-03
            5049             904     8.77167E-03     8.04801E-03
            5049            5270     629.709E-06     700.245E-06
            5049            5271     642.581E-06     716.028E-06
            5050             904     8.77167E-03     8.04801E-03
            5050             905     8.88373E-03     8.08409E-03
            5050            5271     642.581E-06     716.028E-06
            5050            5272     656.938E-06     732.214E-06
            5051             905     8.88373E-03     8.08409E-03
            5051             906     9.01831E-03     8.14370E-03
            5051            5272     656.938E-06     732.214E-06
            5051            5273     672.032E-06     749.141E-06
            5052             906     9.01831E-03     8.14370E-03
            5052             907     9.12058E-03     8.17244E-03
            5052            5273     672.032E-06     749.141E-06
            5052            5274     687.237E-06     765.386E-06
            5053             907     9.12058E-03     8.17244E-03
            5053             908     9.27875E-03     8.25791E-03
            5053            5274     687.237E-06     765.386E-06
            5053            5275     702.559E-06     782.160E-06
            5054             908     9.27875E-03     8.25791E-03
            5054             909     9.32946E-03     8.24169E-03
            5054            5275     702.559E-06     782.160E-06
            5054            5276     715.815E-06     797.343E-06
            5055             909     9.32946E-03     8.24169E-03
            5055             910     9.52860E-03     8.28432E-03
            5055            5276     715.815E-06     797.343E-06
            5055            5277     735.783E-06     818.985E-06
            5056             910     9.52860E-03     8.28432E-03
            5056             911     9.06937E-03     7.89669E-03
            5056            5277     735.783E-06     818.985E-06
            5056            5278     765.902E-06     853.194E-06
            5057              38     7.99197E-03     6.65555E-03
            5057             911     9.06937E-03     7.89669E-03
            5057             912     872.842E-06     958.717E-06
            5057            5278     765.902E-06     853.194E-06
            5058             940     647.427E-06     585.361E-06
            5058             941     568.651E-06     636.833E-06
            5058            5261     569.519E-06     631.032E-06
            5058            5279     630.967E-06     603.833E-06
            5059            5261     569.519E-06     631.032E-06
            5059            5262     575.291E-06     620.661E-06
            5059            5279     630.967E-06     603.833E-06
            5059            5280     608.569E-06     626.316E-06
            5060            5262     575.291E-06     620.661E-06
            5060            5263     583.352E-06     619.080E-06
            5060            5280     608.569E-06     626.316E-06
            5060            5281     605.050E-06     631.088E-06
            5061            5263     583.352E-06     619.080E-06
            5061            5264     587.230E-06     626.438E-06
            5061            5281     605.050E-06     631.088E-06
            5061            5282     608.095E-06     636.989E-06
            5062            5264     587.230E-06     626.438E-06
            5062            5265     590.158E-06     636.276E-06
            5062            5282     608.095E-06     636.989E-06
            5062            5283     610.474E-06     645.759E-06
            5063            5265     590.158E-06     636.276E-06
            5063            5266     594.626E-06     647.249E-06
            5063            5283     610.474E-06     645.759E-06
            5063            5284     615.549E-06     654.481E-06
            5064            5266     594.626E-06     647.249E-06
            5064            5267     600.558E-06     658.987E-06
            5064            5284     615.549E-06     654.481E-06
            5064            5285     622.535E-06     664.868E-06
            5065            5267     600.558E-06     658.987E-06
            5065            5268     608.590E-06     671.732E-06
            5065            5285     622.535E-06     664.868E-06
            5065            5286     631.046E-06     676.386E-06
            5066            5268     608.590E-06     671.732E-06
            5066            5269     618.190E-06     685.556E-06
            5066            5286     631.046E-06     676.386E-06
            5066            5287     641.450E-06     689.170E-06
            5067            5269     618.190E-06     685.556E-06
            5067            5270     629.709E-06     700.245E-06
            5067            5287     641.450E-06     689.170E-06
            5067            5288     653.396E-06     703.273E-06
            5068            5270     629.709E-06     700.245E-06
            5068            5271     642.581E-06     716.028E-06
            5068            5288     653.396E-06     703.273E-06
            5068            5289     667.141E-06     718.556E-06
            5069            5271     642.581E-06     716.028E-06
            5069            5272     656.938E-06     732.214E-06
            5069            5289     667.141E-06     718.556E-06
            5069            5290     682.539E-06     735.345E-06
            5070            5272     656.938E-06     732.214E-06
            5070            5273     672.032E-06     749.141E-06
            5070            5290     682.539E-06     735.345E-06
            5070            5291     699.530E-06     753.205E-06
            5071            5273     672.032E-06     749.141E-06
            5071            5274     687.237E-06     765.386E-06
            5071            5291     699.530E-06     753.205E-06
            5071            5292     718.229E-06     772.747E-06
            5072            5274     687.237E-06     765.386E-06
            5072            5275     702.559E-06     782.160E-06
            5072            5292     718.229E-06     772.747E-06
            5072            5293     737.173E-06     792.622E-06
            5073            5275     702.559E-06     782.160E-06
            5073            5276     715.815E-06     797.343E-06
            5073            5293     737.173E-06     792.622E-06
            5073            5294     757.770E-06     813.843E-06
            5074            5276     715.815E-06     797.343E-06
            5074            5277     735.783E-06     818.985E-06
            5074            5294     757.770E-06     813.843E-06
            5074            5295     773.584E-06     832.805E-06
            5075            5277     735.783E-06     818.985E-06
            5075            5278     765.902E-06     853.194E-06
            5075            5295     773.584E-06     832.805E-06
            5075            5296     799.680E-06     853.585E-06
            5076             912     872.842E-06     958.717E-06
            5076             913     867.506E-06     905.706E-06
            5076            5278     765.902E-06     853.194E-06
            5076            5296     799.680E-06     853.585E-06
            5077             939     662.237E-06     589.747E-06
            5077             940     647.427E-06     585.361E-06
            5077            5279     630.967E-06     603.833E-06
            5077            5297     658.991E-06     597.519E-06
            5078            5279     630.967E-06     603.833E-06
            5078            5280     608.569E-06     626.316E-06
            5078            5297     658.991E-06     597.519E-06
            5078            5298     647.238E-06     619.250E-06
            5079            5280     608.569E-06     626.316E-06
            5079            5281     605.050E-06     631.088E-06
            5079            5298     647.238E-06     619.250E-06
            5079            5299     633.504E-06     640.317E-06
            5080            5281     605.050E-06     631.088E-06
            5080            5282     608.095E-06     636.989E-06
            5080            5299     633.504E-06     640.317E-06
            5080            5300     629.152E-06     649.417E-06
            5081            5282     608.095E-06     636.989E-06
            5081            5283     610.474E-06     645.759E-06
            5081            5300     629.152E-06     649.417E-06
            5081            5301     632.584E-06     654.927E-06
            5082            5283     610.474E-06     645.759E-06
            5082            5284     615.549E-06     654.481E-06
            5082            5301     632.584E-06     654.927E-06
            5082            5302     638.301E-06     662.184E-06
            5083            5284     615.549E-06     654.481E-06
            5083            5285     622.535E-06     664.868E-06
            5083            5302     638.301E-06     662.184E-06
            5083            5303     645.765E-06     670.699E-06
            5084            5285     622.535E-06     664.868E-06
            5084            5286     631.046E-06     676.386E-06
            5084            5303     645.765E-06     670.699E-06
            5084            5304     654.873E-06     680.767E-06
            5085            5286     631.046E-06     676.386E-06
            5085            5287     641.450E-06     689.170E-06
            5085            5304     654.873E-06     680.767E-06
            5085            5305     665.402E-06     692.248E-06
            5086            5287     641.450E-06     689.170E-06
            5086            5288     653.396E-06     703.273E-06
            5086            5305     665.402E-06     692.248E-06
            5086            5306     677.579E-06     705.154E-06
            5087            5288     653.396E-06     703.273E-06
            5087            5289     667.141E-06     718.556E-06
            5087            5306     677.579E-06     705.154E-06
            5087            5307     691.490E-06     719.713E-06
            5088            5289     667.141E-06     718.556E-06
            5088            5290     682.539E-06     735.345E-06
            5088            5307     691.490E-06     719.713E-06
            5088            5308     707.363E-06     736.066E-06
            5089            5290     682.539E-06     735.345E-06
            5089            5291     699.530E-06     753.205E-06
            5089            5308     707.363E-06     736.066E-06
            5089            5309     725.579E-06     754.639E-06
            5090            5291     699.530E-06     753.205E-06
            5090            5292     718.229E-06     772.747E-06
            5090            5309     725.579E-06     754.639E-06
            5090            5310     745.989E-06     775.505E-06
            5091            5292     718.229E-06     772.747E-06
            5091            5293     737.173E-06     792.622E-06
            5091            5310     745.989E-06     775.505E-06
            5091            5311     768.395E-06     798.105E-06
            5092            5293     737.173E-06     792.622E-06
            5092            5294     757.770E-06     813.843E-06
            5092            5311     768.395E-06     798.105E-06
            5092            5312     789.550E-06     820.602E-06
            5093            5294     757.770E-06     813.843E-06
            5093            5295     773.584E-06     832.805E-06
            5093            5312     789.550E-06     820.602E-06
            5093            5313     802.637E-06     835.319E-06
            5094            5295     773.584E-06     832.805E-06
            5094            5296     799.680E-06     853.585E-06
            5094            5313     802.637E-06     835.319E-06
            5094            5314     794.947E-06     831.959E-06
            5095             913     867.506E-06     905.706E-06
            5095             914     750.930E-06     786.064E-06
            5095            5296     799.680E-06     853.585E-06
            5095            5314     794.947E-06     831.959E-06
            5096             938     679.686E-06     605.652E-06
            5096             939     662.237E-06     589.747E-06
            5096            5297     658.991E-06     597.519E-06
            5096            5315     676.709E-06     615.424E-06
            5097            5297     658.991E-06     597.519E-06
            5097            5298     647.238E-06     619.250E-06
            5097            5315     676.709E-06     615.424E-06
            5097            5316     665.492E-06     637.809E-06
            5098            5298     647.238E-06     619.250E-06
            5098            5299     633.504E-06     640.317E-06
            5098            5316     665.492E-06     637.809E-06
            5098            5317     653.358E-06     655.000E-06
            5099            5299     633.504E-06     640.317E-06
            5099            5300     629.152E-06     649.417E-06
            5099            5317     653.358E-06     655.000E-06
            5099            5318     651.476E-06     660.767E-06
            5100            5300     629.152E-06     649.417E-06
            5100            5301     632.584E-06     654.927E-06
            5100            5318     651.476E-06     660.767E-06
            5100            5319     656.311E-06     664.423E-06
            5101            5301     632.584E-06     654.927E-06
            5101            5302     638.301E-06     662.184E-06
            5101            5319     656.311E-06     664.423E-06
            5101            5320     662.832E-06     669.921E-06
            5102            5302     638.301E-06     662.184E-06
            5102            5303     645.765E-06     670.699E-06
            5102            5320     662.832E-06     669.921E-06
            5102            5321     670.833E-06     676.811E-06
            5103            5303     645.765E-06     670.699E-06
            5103            5304     654.873E-06     680.767E-06
            5103            5321     670.833E-06     676.811E-06
            5103            5322     680.065E-06     685.252E-06
            5104            5304     654.873E-06     680.767E-06
            5104            5305     665.402E-06     692.248E-06
            5104            5322     680.065E-06     685.252E-06
            5104            5323     690.477E-06     695.025E-06
            5105            5305     665.402E-06     692.248E-06
            5105            5306     677.579E-06     705.154E-06
            5105            5323     690.477E-06     695.025E-06
            5105            5324     702.240E-06     706.215E-06
            5106            5306     677.579E-06     705.154E-06
            5106            5307     691.490E-06     719.713E-06
            5106            5324     702.240E-06     706.215E-06
            5106            5325     715.432E-06     718.931E-06
            5107            5307     691.490E-06     719.713E-06
            5107            5308     707.363E-06     736.066E-06
            5107            5325     715.432E-06     718.931E-06
            5107            5326     730.406E-06     733.447E-06
            5108            5308     707.363E-06     736.066E-06
            5108            5309     725.579E-06     754.639E-06
            5108            5326     730.406E-06     733.447E-06
            5108            5327     747.420E-06     750.132E-06
            5109            5309     725.579E-06     754.639E-06
            5109            5310     745.989E-06     775.505E-06
            5109            5327     747.420E-06     750.132E-06
            5109            5328     766.366E-06     768.701E-06
            5110            5310     745.989E-06     775.505E-06
            5110            5311     768.395E-06     798.105E-06
            5110            5328     766.366E-06     768.701E-06
            5110            5329     786.855E-06     789.007E-06
            5111            5311     768.395E-06     798.105E-06
            5111            5312     789.550E-06     820.602E-06
            5111            5329     786.855E-06     789.007E-06
            5111            5330     802.749E-06     805.629E-06
            5112            5312     789.550E-06     820.602E-06
            5112            5313     802.637E-06     835.319E-06
            5112            5330     802.749E-06     805.629E-06
            5112            5331     808.406E-06     811.996E-06
            5113            5313     802.637E-06     835.319E-06
            5113            5314     794.947E-06     831.959E-06
            5113            5331     808.406E-06     811.996E-06
            5113            5332     760.779E-06     778.384E-06
            5114             914     750.930E-06     786.064E-06
            5114             915     621.540E-06     656.864E-06
            5114            5314     794.947E-06     831.959E-06
            5114            5332     760.779E-06     778.384E-06
            5115             937     700.564E-06     646.348E-06
            5115             938     679.686E-06     605.652E-06
            5115            5315     676.709E-06     615.424E-06
            5115            5333     683.634E-06     663.046E-06
            5116            5315     676.709E-06     615.424E-06
            5116            5316     665.492E-06     637.809E-06
            5116            5333     683.634E-06     663.046E-06
            5116            5334     663.874E-06     678.113E-06
            5117            5316     665.492E-06     637.809E-06
            5117            5317     653.358E-06     655.000E-06
            5117            5334     663.874E-06     678.113E-06
            5117            5335     666.971E-06     672.721E-06
            5118            5317     653.358E-06     655.000E-06
            5118            5318     651.476E-06     660.767E-06
            5118            5335     666.971E-06     672.721E-06
            5118            5336     675.647E-06     671.025E-06
            5119            5318     651.476E-06     660.767E-06
            5119            5319     656.311E-06     664.423E-06
            5119            5336     675.647E-06     671.025E-06
            5119            5337     681.782E-06     674.202E-06
            5120            5319     656.311E-06     664.423E-06
            5120            5320     662.832E-06     669.921E-06
            5120            5337     681.782E-06     674.202E-06
            5120            5338     689.357E-06     677.932E-06
            5121            5320     662.832E-06     669.921E-06
            5121            5321     670.833E-06     676.811E-06
            5121            5338     689.357E-06     677.932E-06
            5121            5339     697.777E-06     683.532E-06
            5122            5321     670.833E-06     676.811E-06
            5122            5322     680.065E-06     685.252E-06
            5122            5339     697.777E-06     683.532E-06
            5122            5340     706.865E-06     690.203E-06
            5123            5322     680.065E-06     685.252E-06
            5123            5323     690.477E-06     695.025E-06
            5123            5340     706.865E-06     690.203E-06
            5123            5341     716.954E-06     698.039E-06
            5124            5323     690.477E-06     695.025E-06
            5124            5324     702.240E-06     706.215E-06
            5124            5341     716.954E-06     698.039E-06
            5124            5342     727.701E-06     706.942E-06
            5125            5324     702.240E-06     706.215E-06
            5125            5325     715.432E-06     718.931E-06
            5125            5342     727.701E-06     706.942E-06
            5125            5343     739.397E-06     716.855E-06
            5126            5325     715.432E-06     718.931E-06
            5126            5326     730.406E-06     733.447E-06
            5126            5343     739.397E-06     716.855E-06
            5126            5344     751.855E-06     727.874E-06
            5127            5326     730.406E-06     733.447E-06
            5127            5327     747.420E-06     750.132E-06
            5127            5344     751.855E-06     727.874E-06
            5127            5345     765.048E-06     739.630E-06
            5128            5327     747.420E-06     750.132E-06
            5128            5328     766.366E-06     768.701E-06
            5128            5345     765.048E-06     739.630E-06
            5128            5346     778.679E-06     752.037E-06
            5129            5328     766.366E-06     768.701E-06
            5129            5329     786.855E-06     789.007E-06
            5129            5346     778.679E-06     752.037E-06
            5129            5347     790.090E-06     762.299E-06
            5130            5329     786.855E-06     789.007E-06
            5130            5330     802.749E-06     805.629E-06
            5130            5347     790.090E-06     762.299E-06
            5130            5348     796.916E-06     767.762E-06
            5131            5330     802.749E-06     805.629E-06
            5131            5331     808.406E-06     811.996E-06
            5131            5348     796.916E-06     767.762E-06
            5131            5349     781.153E-06     753.810E-06
            5132            5331     808.406E-06     811.996E-06
            5132            5332     760.779E-06     778.384E-06
            5132            5349     781.153E-06     753.810E-06
            5132            5350     726.524E-06     700.707E-06
            5133             915     621.540E-06     656.864E-06
            5133             916     559.104E-06     552.825E-06
            5133            5332     760.779E-06     778.384E-06
            5133            5350     726.524E-06     700.707E-06
            5134             936     651.459E-06     738.993E-06
            5134             937     700.564E-06     646.348E-06
            5134            5333     683.634E-06     663.046E-06
            5134            5351     657.279E-06     724.306E-06
            5135            5333     683.634E-06     663.046E-06
            5135            5334     663.874E-06     678.113E-06
            5135            5351     657.279E-06     724.306E-06
            5135            5352     673.195E-06     697.830E-06
            5136            5334     663.874E-06     678.113E-06
            5136            5335     666.971E-06     672.721E-06
            5136            5352     673.195E-06     697.830E-06
            5136            5353     690.392E-06     684.411E-06
            5137            5335     666.971E-06     672.721E-06
            5137            5336     675.647E-06     671.025E-06
            5137            5353     690.392E-06     684.411E-06
            5137            5354     701.102E-06     682.609E-06
            5138            5336     675.647E-06     671.025E-06
            5138            5337     681.782E-06     674.202E-06
            5138            5354     701.102E-06     682.609E-06
            5138            5355     709.399E-06     683.890E-06
            5139            5337     681.782E-06     674.202E-06
            5139            5338     689.357E-06     677.932E-06
            5139            5355     709.399E-06     683.890E-06
            5139            5356     717.854E-06     686.994E-06
            5140            5338     689.357E-06     677.932E-06
            5140            5339     697.777E-06     683.532E-06
            5140            5356     717.854E-06     686.994E-06
            5140            5357     726.314E-06     690.987E-06
            5141            5339     697.777E-06     683.532E-06
            5141            5340     706.865E-06     690.203E-06
            5141            5357     726.314E-06     690.987E-06
            5141            5358     735.566E-06     695.982E-06
            5142            5340     706.865E-06     690.203E-06
            5142            5341     716.954E-06     698.039E-06
            5142            5358     735.566E-06     695.982E-06
            5142            5359     744.933E-06     701.830E-06
            5143            5341     716.954E-06     698.039E-06
            5143            5342     727.701E-06     706.942E-06
            5143            5359     744.933E-06     701.830E-06
            5143            5360     754.760E-06     708.239E-06
            5144            5342     727.701E-06     706.942E-06
            5144            5343     739.397E-06     716.855E-06
            5144            5360     754.760E-06     708.239E-06
            5144            5361     764.385E-06     715.127E-06
            5145            5343     739.397E-06     716.855E-06
            5145            5344     751.855E-06     727.874E-06
            5145            5361     764.385E-06     715.127E-06
            5145            5362     773.704E-06     721.728E-06
            5146            5344     751.855E-06     727.874E-06
            5146            5345     765.048E-06     739.630E-06
            5146            5362     773.704E-06     721.728E-06
            5146            5363     781.707E-06     727.410E-06
            5147            5345     765.048E-06     739.630E-06
            5147            5346     778.679E-06     752.037E-06
            5147            5363     781.707E-06     727.410E-06
            5147            5364     786.752E-06     730.275E-06
            5148            5346     778.679E-06     752.037E-06
            5148            5347     790.090E-06     762.299E-06
            5148            5364     786.752E-06     730.275E-06
            5148            5365     786.304E-06     727.328E-06
            5149            5347     790.090E-06     762.299E-06
            5149            5348     796.916E-06     767.762E-06
            5149            5365     786.304E-06     727.328E-06
            5149            5366     773.299E-06     712.417E-06
            5150            5348     796.916E-06     767.762E-06
            5150            5349     781.153E-06     753.810E-06
            5150            5366     773.299E-06     712.417E-06
            5150            5367     738.401E-06     674.392E-06
            5151            5349     781.153E-06     753.810E-06
            5151            5350     726.524E-06     700.707E-06
            5151            5367     738.401E-06     674.392E-06
            5151            5368     661.509E-06     593.026E-06
            5152             916     559.104E-06     552.825E-06
            5152             917     513.935E-06     444.354E-06
            5152            5350     726.524E-06     700.707E-06
            5152            5368     661.509E-06     593.026E-06
            5153              40     604.197E-06     755.548E-06
            5153             935     642.107E-06     736.589E-06
            5153             936     651.459E-06     738.993E-06
            5153            5351     657.279E-06     724.306E-06
            5154             934     688.610E-06     700.056E-06
            5154             935     642.107E-06     736.589E-06
            5154            5351     657.279E-06     724.306E-06
            5154            5352     673.195E-06     697.830E-06
            5155             933     704.295E-06     687.382E-06
            5155             934     688.610E-06     700.056E-06
            5155            5352     673.195E-06     697.830E-06
            5155            5353     690.392E-06     684.411E-06
            5156             932     714.945E-06     689.159E-06
            5156             933     704.295E-06     687.382E-06
            5156            5353     690.392E-06     684.411E-06
            5156            5354     701.102E-06     682.609E-06
            5157             931     723.541E-06     688.611E-06
            5157             932     714.945E-06     689.159E-06
            5157            5354     701.102E-06     682.609E-06
            5157            5355     709.399E-06     683.890E-06
            5158             930     732.491E-06     691.960E-06
            5158             931     723.541E-06     688.611E-06
            5158            5355     709.399E-06     683.890E-06
            5158            5356     717.854E-06     686.994E-06
            5159             929     741.062E-06     694.785E-06
            5159             930     732.491E-06     691.960E-06
            5159            5356     717.854E-06     686.994E-06
            5159            5357     726.314E-06     690.987E-06
            5160             928     750.241E-06     699.226E-06
            5160             929     741.062E-06     694.785E-06
            5160            5357     726.314E-06     690.987E-06
            5160            5358     735.566E-06     695.982E-06
            5161             927     759.450E-06     703.807E-06
            5161             928     750.241E-06     699.226E-06
            5161            5358     735.566E-06     695.982E-06
            5161            5359     744.933E-06     701.830E-06
            5162             926     768.639E-06     709.346E-06
            5162             927     759.450E-06     703.807E-06
            5162            5359     744.933E-06     701.830E-06
            5162            5360     754.760E-06     708.239E-06
            5163             925     777.412E-06     714.354E-06
            5163             926     768.639E-06     709.346E-06
            5163            5360     754.760E-06     708.239E-06
            5163            5361     764.385E-06     715.127E-06
            5164             924     785.005E-06     719.210E-06
            5164             925     777.412E-06     714.354E-06
            5164            5361     764.385E-06     715.127E-06
            5164            5362     773.704E-06     721.728E-06
            5165             923     790.324E-06     721.320E-06
            5165             924     785.005E-06     719.210E-06
            5165            5362     773.704E-06     721.728E-06
            5165            5363     781.707E-06     727.410E-06
            5166             922     790.833E-06     719.466E-06
            5166             923     790.324E-06     721.320E-06
            5166            5363     781.707E-06     727.410E-06
            5166            5364     786.752E-06     730.275E-06
            5167             921     783.599E-06     709.309E-06
            5167             922     790.833E-06     719.466E-06
            5167            5364     786.752E-06     730.275E-06
            5167            5365     786.304E-06     727.328E-06
            5168             920     758.937E-06     682.065E-06
            5168             921     783.599E-06     709.309E-06
            5168            5365     786.304E-06     727.328E-06
            5168            5366     773.299E-06     712.417E-06
            5169             919     714.759E-06     632.479E-06
            5169             920     758.937E-06     682.065E-06
            5169            5366     773.299E-06     712.417E-06
            5169            5367     738.401E-06     674.392E-06
            5170             918     616.488E-06     529.941E-06
            5170             919     714.759E-06     632.479E-06
            5170            5367     738.401E-06     674.392E-06
            5170            5368     661.509E-06     593.026E-06
            5171              39     480.370E-06     381.279E-06
            5171             917     513.935E-06     444.354E-06
            5171             918     616.488E-06     529.941E-06
            5171            5368     661.509E-06     593.026E-06
            5172              29     190.137E-03     194.090E-03
            5172             625     186.983E-03     190.001E-03
            5172             947     159.878E-03     164.637E-03
            5172            5369     150.378E-03     155.083E-03
            5173             624     182.896E-03     186.016E-03
            5173             625     186.983E-03     190.001E-03
            5173            5369     150.378E-03     155.083E-03
            5173            5370     143.201E-03     147.874E-03
            5174             623     179.197E-03     181.646E-03
            5174             624     182.896E-03     186.016E-03
            5174            5370     143.201E-03     147.874E-03
            5174            5371     136.351E-03     141.076E-03
            5175             622     174.728E-03     176.848E-03
            5175             623     179.197E-03     181.646E-03
            5175            5371     136.351E-03     141.076E-03
            5175            5372     129.726E-03     134.437E-03
            5176             621     170.194E-03     171.737E-03
            5176             622     174.728E-03     176.848E-03
            5176            5372     129.726E-03     134.437E-03
            5176            5373     123.035E-03     127.675E-03
            5177             620     165.265E-03     166.350E-03
            5177             621     170.194E-03     171.737E-03
            5177            5373     123.035E-03     127.675E-03
            5177            5374     116.278E-03     120.828E-03
            5178             619     160.279E-03     160.883E-03
            5178             620     165.265E-03     166.350E-03
            5178            5374     116.278E-03     120.828E-03
            5178            5375     109.439E-03     113.867E-03
            5179             618     155.139E-03     155.369E-03
            5179             619     160.279E-03     160.883E-03
            5179            5375     109.439E-03     113.867E-03
            5179            5376     102.533E-03     106.844E-03
            5180             617     150.027E-03     149.924E-03
            5180             618     155.139E-03     155.369E-03
            5180            5376     102.533E-03     106.844E-03
            5180            5377     95.5872E-03     99.7689E-03
            5181             616     144.909E-03     144.579E-03
            5181             617     150.027E-03     149.924E-03
            5181            5377     95.5872E-03     99.7689E-03
            5181            5378     88.6149E-03     92.6731E-03
            5182             615     139.883E-03     139.394E-03
            5182             616     144.909E-03     144.579E-03
            5182            5378     88.6149E-03     92.6731E-03
            5182            5379     81.6515E-03     85.5794E-03
            5183             614     134.930E-03     134.392E-03
            5183             615     139.883E-03     139.394E-03
            5183            5379     81.6515E-03     85.5794E-03
            5183            5380     74.7042E-03     78.5046E-03
            5184             613     130.054E-03     129.555E-03
            5184             614     134.930E-03     134.392E-03
            5184            5380     74.7042E-03     78.5046E-03
            5184            5381     67.8472E-03     71.5088E-03
            5185             612     125.170E-03     124.795E-03
            5185             613     130.054E-03     129.555E-03
            5185            5381     67.8472E-03     71.5088E-03
            5185            5382     61.0837E-03     64.5995E-03
            5186             611     120.161E-03     119.926E-03
            5186             612     125.170E-03     124.795E-03
            5186            5382     61.0837E-03     64.5995E-03
            5186            5383     54.6577E-03     58.0157E-03
            5187             610     114.244E-03     113.889E-03
            5187             611     120.161E-03     119.926E-03
            5187            5383     54.6577E-03     58.0157E-03
            5187            5384     48.5596E-03     51.7073E-03
            5188             609     108.899E-03     109.004E-03
            5188             610     114.244E-03     113.889E-03
            5188            5384     48.5596E-03     51.7073E-03
            5188            5385     43.8264E-03     46.8213E-03
            5189             608     104.930E-03     103.069E-03
            5189             609     108.899E-03     109.004E-03
            5189            5385     43.8264E-03     46.8213E-03
            5189            5386     39.6151E-03     43.3245E-03
            5190              30     72.0702E-03     85.0202E-03
            5190             608     104.930E-03     103.069E-03
            5190             720     32.2142E-03     33.5715E-03
            5190            5386     39.6151E-03     43.3245E-03
            5191             946     165.756E-03     169.812E-03
            5191             947     159.878E-03     164.637E-03
            5191            5369     150.378E-03     155.083E-03
            5191            5387     154.744E-03     159.345E-03
            5192            5369     150.378E-03     155.083E-03
            5192            5370     143.201E-03     147.874E-03
            5192            5387     154.744E-03     159.345E-03
            5192            5388     146.646E-03     150.884E-03
            5193            5370     143.201E-03     147.874E-03
            5193            5371     136.351E-03     141.076E-03
            5193            5388     146.646E-03     150.884E-03
            5193            5389     139.056E-03     143.055E-03
            5194            5371     136.351E-03     141.076E-03
            5194            5372     129.726E-03     134.437E-03
            5194            5389     139.056E-03     143.055E-03
            5194            5390     131.747E-03     135.588E-03
            5195            5372     129.726E-03     134.437E-03
            5195            5373     123.035E-03     127.675E-03
            5195            5390     131.747E-03     135.588E-03
            5195            5391     124.496E-03     128.242E-03
            5196            5373     123.035E-03     127.675E-03
            5196            5374     116.278E-03     120.828E-03
            5196            5391     124.496E-03     128.242E-03
            5196            5392     117.264E-03     120.939E-03
            5197            5374     116.278E-03     120.828E-03
            5197            5375     109.439E-03     113.867E-03
            5197            5392     117.264E-03     120.939E-03
            5197            5393     110.035E-03     113.657E-03
            5198            5375     109.439E-03     113.867E-03
            5198            5376     102.533E-03     106.844E-03
            5198            5393     110.035E-03     113.657E-03
            5198            5394     102.816E-03     106.376E-03
            5199            5376     102.533E-03     106.844E-03
            5199            5377     95.5872E-03     99.7689E-03
            5199            5394     102.816E-03     106.376E-03
            5199            5395     95.6032E-03     99.1078E-03
            5200            5377     95.5872E-03     99.7689E-03
            5200            5378     88.6149E-03     92.6731E-03
            5200            5395     95.6032E-03     99.1078E-03
            5200            5396     88.4134E-03     91.8506E-03
            5201            5378     88.6149E-03     92.6731E-03
            5201            5379     81.6515E-03     85.5794E-03
            5201            5396     88.4134E-03     91.8506E-03
            5201            5397     81.2451E-03     84.6130E-03
            5202            5379     81.6515E-03     85.5794E-03
            5202            5380     74.7042E-03     78.5046E-03
            5202            5397     81.2451E-03     84.6130E-03
            5202            5398     74.1269E-03     77.4094E-03
            5203            5380     74.7042E-03     78.5046E-03
            5203            5381     67.8472E-03     71.5088E-03
            5203            5398     74.1269E-03     77.4094E-03
            5203            5399     67.0628E-03     70.2554E-03
            5204            5381     67.8472E-03     71.5088E-03
            5204            5382     61.0837E-03     64.5995E-03
            5204            5399     67.0628E-03     70.2554E-03
            5204            5400     60.1125E-03     63.2163E-03
            5205            5382     61.0837E-03     64.5995E-03
            5205            5383     54.6577E-03     58.0157E-03
            5205            5400     60.1125E-03     63.2163E-03
            5205            5401     53.2927E-03     56.3911E-03
            5206            5383     54.6577E-03     58.0157E-03
            5206            5384     48.5596E-03     51.7073E-03
            5206            5401     53.2927E-03     56.3911E-03
            5206            5402     46.6820E-03     50.0341E-03
            5207            5384     48.5596E-03     51.7073E-03
            5207            5385     43.8264E-03     46.8213E-03
            5207            5402     46.6820E-03     50.0341E-03
            5207            5403     40.4408E-03     44.5017E-03
            5208            5385     43.8264E-03     46.8213E-03
            5208            5386     39.6151E-03     43.3245E-03
            5208            5403     40.4408E-03     44.5017E-03
            5208            5404     32.2048E-03     37.8033E-03
            5209             719     25.3373E-03     25.5997E-03
            5209             720     32.2142E-03     33.5715E-03
            5209            5386     39.6151E-03     43.3245E-03
            5209            5404     32.2048E-03     37.8033E-03
            5210             945     166.480E-03     170.068E-03
            5210             946     165.756E-03     169.812E-03
            5210            5387     154.744E-03     159.345E-03
            5210            5405     157.439E-03     160.966E-03
            5211            5387     154.744E-03     159.345E-03
            5211            5388     146.646E-03     150.884E-03
            5211            5405     157.439E-03     160.966E-03
            5211            5406     148.543E-03     152.007E-03
            5212            5388     146.646E-03     150.884E-03
            5212            5389     139.056E-03     143.055E-03
            5212            5406     148.543E-03     152.007E-03
            5212            5407     140.688E-03     143.774E-03
            5213            5389     139.056E-03     143.055E-03
            5213            5390     131.747E-03     135.588E-03
            5213            5407     140.688E-03     143.774E-03
            5213            5408     132.927E-03     135.842E-03
            5214            5390     131.747E-03     135.588E-03
            5214            5391     124.496E-03     128.242E-03
            5214            5408     132.927E-03     135.842E-03
            5214            5409     125.348E-03     128.170E-03
            5215            5391     124.496E-03     128.242E-03
            5215            5392     117.264E-03     120.939E-03
            5215            5409     125.348E-03     128.170E-03
            5215            5410     117.826E-03     120.624E-03
            5216            5392     117.264E-03     120.939E-03
            5216            5393     110.035E-03     113.657E-03
            5216            5410     117.826E-03     120.624E-03
            5216            5411     110.371E-03     113.157E-03
            5217            5393     110.035E-03     113.657E-03
            5217            5394     102.816E-03     106.376E-03
            5217            5411     110.371E-03     113.157E-03
            5217            5412     102.955E-03     105.747E-03
            5218            5394     102.816E-03     106.376E-03
            5218            5395     95.6032E-03     99.1078E-03
            5218            5412     102.955E-03     105.747E-03
            5218            5413     95.5808E-03     98.3698E-03
            5219            5395     95.6032E-03     99.1078E-03
            5219            5396     88.4134E-03     91.8506E-03
            5219            5413     95.5808E-03     98.3698E-03
            5219            5414     88.2367E-03     91.0246E-03
            5220            5396     88.4134E-03     91.8506E-03
            5220            5397     81.2451E-03     84.6130E-03
            5220            5414     88.2367E-03     91.0246E-03
            5220            5415     80.9318E-03     83.7038E-03
            5221            5397     81.2451E-03     84.6130E-03
            5221            5398     74.1269E-03     77.4094E-03
            5221            5415     80.9318E-03     83.7038E-03
            5221            5416     73.6667E-03     76.4148E-03
            5222            5398     74.1269E-03     77.4094E-03
            5222            5399     67.0628E-03     70.2554E-03
            5222            5416     73.6667E-03     76.4148E-03
            5222            5417     66.4462E-03     69.1590E-03
            5223            5399     67.0628E-03     70.2554E-03
            5223            5400     60.1125E-03     63.2163E-03
            5223            5417     66.4462E-03     69.1590E-03
            5223            5418     59.2980E-03     61.9950E-03
            5224            5400     60.1125E-03     63.2163E-03
            5224            5401     53.2927E-03     56.3911E-03
            5224            5418     59.2980E-03     61.9950E-03
            5224            5419     52.1431E-03     54.8927E-03
            5225            5401     53.2927E-03     56.3911E-03
            5225            5402     46.6820E-03     50.0341E-03
            5225            5419     52.1431E-03     54.8927E-03
            5225            5420     44.9995E-03     48.2305E-03
            5226            5402     46.6820E-03     50.0341E-03
            5226            5403     40.4408E-03     44.5017E-03
            5226            5420     44.9995E-03     48.2305E-03
            5226            5421     36.8997E-03     41.2800E-03
            5227            5403     40.4408E-03     44.5017E-03
            5227            5404     32.2048E-03     37.8033E-03
            5227            5421     36.8997E-03     41.2800E-03
            5227            5422     27.6653E-03     32.2804E-03
            5228             718     20.9965E-03     20.8459E-03
            5228             719     25.3373E-03     25.5997E-03
            5228            5404     32.2048E-03     37.8033E-03
            5228            5422     27.6653E-03     32.2804E-03
            5229             944     163.427E-03     166.147E-03
            5229             945     166.480E-03     170.068E-03
            5229            5405     157.439E-03     160.966E-03
            5229            5423     156.302E-03     158.582E-03
            5230            5405     157.439E-03     160.966E-03
            5230            5406     148.543E-03     152.007E-03
            5230            5423     156.302E-03     158.582E-03
            5230            5424     148.512E-03     150.522E-03
            5231            5406     148.543E-03     152.007E-03
            5231            5407     140.688E-03     143.774E-03
            5231            5424     148.512E-03     150.522E-03
            5231            5425     140.620E-03     142.534E-03
            5232            5407     140.688E-03     143.774E-03
            5232            5408     132.927E-03     135.842E-03
            5232            5425     140.620E-03     142.534E-03
            5232            5426     132.952E-03     134.788E-03
            5233            5408     132.927E-03     135.842E-03
            5233            5409     125.348E-03     128.170E-03
            5233            5426     132.952E-03     134.788E-03
            5233            5427     125.321E-03     127.182E-03
            5234            5409     125.348E-03     128.170E-03
            5234            5410     117.826E-03     120.624E-03
            5234            5427     125.321E-03     127.182E-03
            5234            5428     117.794E-03     119.683E-03
            5235            5410     117.826E-03     120.624E-03
            5235            5411     110.371E-03     113.157E-03
            5235            5428     117.794E-03     119.683E-03
            5235            5429     110.302E-03     112.255E-03
            5236            5411     110.371E-03     113.157E-03
            5236            5412     102.955E-03     105.747E-03
            5236            5429     110.302E-03     112.255E-03
            5236            5430     102.859E-03     104.863E-03
            5237            5412     102.955E-03     105.747E-03
            5237            5413     95.5808E-03     98.3698E-03
            5237            5430     102.859E-03     104.863E-03
            5237            5431     95.4336E-03     97.5018E-03
            5238            5413     95.5808E-03     98.3698E-03
            5238            5414     88.2367E-03     91.0246E-03
            5238            5431     95.4336E-03     97.5018E-03
            5238            5432     88.0332E-03     90.1530E-03
            5239            5414     88.2367E-03     91.0246E-03
            5239            5415     80.9318E-03     83.7038E-03
            5239            5432     88.0332E-03     90.1530E-03
            5239            5433     80.6492E-03     82.8230E-03
            5240            5415     80.9318E-03     83.7038E-03
            5240            5416     73.6667E-03     76.4148E-03
            5240            5433     80.6492E-03     82.8230E-03
            5240            5434     73.2838E-03     75.4991E-03
            5241            5416     73.6667E-03     76.4148E-03
            5241            5417     66.4462E-03     69.1590E-03
            5241            5434     73.2838E-03     75.4991E-03
            5241            5435     65.9488E-03     68.1977E-03
            5242            5417     66.4462E-03     69.1590E-03
            5242            5418     59.2980E-03     61.9950E-03
            5242            5435     65.9488E-03     68.1977E-03
            5242            5436     58.5967E-03     60.8772E-03
            5243            5418     59.2980E-03     61.9950E-03
            5243            5419     52.1431E-03     54.8927E-03
            5243            5436     58.5967E-03     60.8772E-03
            5243            5437     51.2512E-03     53.6046E-03
            5244            5419     52.1431E-03     54.8927E-03
            5244            5420     44.9995E-03     48.2305E-03
            5244            5437     51.2512E-03     53.6046E-03
            5244            5438     43.5749E-03     46.1220E-03
            5245            5420     44.9995E-03     48.2305E-03
            5245            5421     36.8997E-03     41.2800E-03
            5245            5438     43.5749E-03     46.1220E-03
            5245            5439     35.0532E-03     38.3102E-03
            5246            5421     36.8997E-03     41.2800E-03
            5246            5422     27.6653E-03     32.2804E-03
            5246            5439     35.0532E-03     38.3102E-03
            5246            5440     24.8763E-03     30.1025E-03
            5247             717     19.0692E-03     20.1787E-03
            5247             718     20.9965E-03     20.8459E-03
            5247            5422     27.6653E-03     32.2804E-03
            5247            5440     24.8763E-03     30.1025E-03
            5248             943     158.183E-03     157.983E-03
            5248             944     163.427E-03     166.147E-03
            5248            5423     156.302E-03     158.582E-03
            5248            5441     152.334E-03     152.481E-03
            5249            5423     156.302E-03     158.582E-03
            5249            5424     148.512E-03     150.522E-03
            5249            5441     152.334E-03     152.481E-03
            5249            5442     145.915E-03     146.172E-03
            5250            5424     148.512E-03     150.522E-03
            5250            5425     140.620E-03     142.534E-03
            5250            5442     145.915E-03     146.172E-03
            5250            5443     138.849E-03     139.346E-03
            5251            5425     140.620E-03     142.534E-03
            5251            5426     132.952E-03     134.788E-03
            5251            5443     138.849E-03     139.346E-03
            5251            5444     131.656E-03     132.377E-03
            5252            5426     132.952E-03     134.788E-03
            5252            5427     125.321E-03     127.182E-03
            5252            5444     131.656E-03     132.377E-03
            5252            5445     124.435E-03     125.282E-03
            5253            5427     125.321E-03     127.182E-03
            5253            5428     117.794E-03     119.683E-03
            5253            5445     124.435E-03     125.282E-03
            5253            5446     117.152E-03     118.153E-03
            5254            5428     117.794E-03     119.683E-03
            5254            5429     110.302E-03     112.255E-03
            5254            5446     117.152E-03     118.153E-03
            5254            5447     109.869E-03     110.972E-03
            5255            5429     110.302E-03     112.255E-03
            5255            5430     102.859E-03     104.863E-03
            5255            5447     109.869E-03     110.972E-03
            5255            5448     102.539E-03     103.767E-03
            5256            5430     102.859E-03     104.863E-03
            5256            5431     95.4336E-03     97.5018E-03
            5256            5448     102.539E-03     103.767E-03
            5256            5449     95.1930E-03     96.5274E-03
            5257            5431     95.4336E-03     97.5018E-03
            5257            5432     88.0332E-03     90.1530E-03
            5257            5449     95.1930E-03     96.5274E-03
            5257            5450     87.8143E-03     89.2710E-03
            5258            5432     88.0332E-03     90.1530E-03
            5258            5433     80.6492E-03     82.8230E-03
            5258            5450     87.8143E-03     89.2710E-03
            5258            5451     80.4135E-03     81.9871E-03
            5259            5433     80.6492E-03     82.8230E-03
            5259            5434     73.2838E-03     75.4991E-03
            5259            5451     80.4135E-03     81.9871E-03
            5259            5452     72.9920E-03     74.6930E-03
            5260            5434     73.2838E-03     75.4991E-03
            5260            5435     65.9488E-03     68.1977E-03
            5260            5452     72.9920E-03     74.6930E-03
            5260            5453     65.5398E-03     67.3644E-03
            5261            5435     65.9488E-03     68.1977E-03
            5261            5436     58.5967E-03     60.8772E-03
            5261            5453     65.5398E-03     67.3644E-03
            5261            5454     58.0520E-03     59.9830E-03
            5262            5436     58.5967E-03     60.8772E-03
            5262            5437     51.2512E-03     53.6046E-03
            5262            5454     58.0520E-03     59.9830E-03
            5262            5455     50.4776E-03     52.4749E-03
            5263            5437     51.2512E-03     53.6046E-03
            5263            5438     43.5749E-03     46.1220E-03
            5263            5455     50.4776E-03     52.4749E-03
            5263            5456     42.6776E-03     44.5715E-03
            5264            5438     43.5749E-03     46.1220E-03
            5264            5439     35.0532E-03     38.3102E-03
            5264            5456     42.6776E-03     44.5715E-03
            5264            5457     34.6209E-03     36.3241E-03
            5265            5439     35.0532E-03     38.3102E-03
            5265            5440     24.8763E-03     30.1025E-03
            5265            5457     34.6209E-03     36.3241E-03
            5265            5458     25.4323E-03     28.3505E-03
            5266             716     18.5608E-03     21.2912E-03
            5266             717     19.0692E-03     20.1787E-03
            5266            5440     24.8763E-03     30.1025E-03
            5266            5458     25.4323E-03     28.3505E-03
            5267             942     147.960E-03     148.184E-03
            5267             943     158.183E-03     157.983E-03
            5267            5441     152.334E-03     152.481E-03
            5267            5459     142.257E-03     142.777E-03
            5268            5441     152.334E-03     152.481E-03
            5268            5442     145.915E-03     146.172E-03
            5268            5459     142.257E-03     142.777E-03
            5268            5460     135.973E-03     136.862E-03
            5269            5442     145.915E-03     146.172E-03
            5269            5443     138.849E-03     139.346E-03
            5269            5460     135.973E-03     136.862E-03
            5269            5461     129.512E-03     130.609E-03
            5270            5443     138.849E-03     139.346E-03
            5270            5444     131.656E-03     132.377E-03
            5270            5461     129.512E-03     130.609E-03
            5270            5462     122.836E-03     124.120E-03
            5271            5444     131.656E-03     132.377E-03
            5271            5445     124.435E-03     125.282E-03
            5271            5462     122.836E-03     124.120E-03
            5271            5463     116.113E-03     117.493E-03
            5272            5445     124.435E-03     125.282E-03
            5272            5446     117.152E-03     118.153E-03
            5272            5463     116.113E-03     117.493E-03
            5272            5464     109.317E-03     110.806E-03
            5273            5446     117.152E-03     118.153E-03
            5273            5447     109.869E-03     110.972E-03
            5273            5464     109.317E-03     110.806E-03
            5273            5465     102.495E-03     104.039E-03
            5274            5447     109.869E-03     110.972E-03
            5274            5448     102.539E-03     103.767E-03
            5274            5465     102.495E-03     104.039E-03
            5274            5466     95.6240E-03     97.2535E-03
            5275            5448     102.539E-03     103.767E-03
            5275            5449     95.1930E-03     96.5274E-03
            5275            5466     95.6240E-03     97.2535E-03
            5275            5467     88.7348E-03     90.4220E-03
            5276            5449     95.1930E-03     96.5274E-03
            5276            5450     87.8143E-03     89.2710E-03
            5276            5467     88.7348E-03     90.4220E-03
            5276            5468     81.8103E-03     83.5793E-03
            5277            5450     87.8143E-03     89.2710E-03
            5277            5451     80.4135E-03     81.9871E-03
            5277            5468     81.8103E-03     83.5793E-03
            5277            5469     74.8737E-03     76.7130E-03
            5278            5451     80.4135E-03     81.9871E-03
            5278            5452     72.9920E-03     74.6930E-03
            5278            5469     74.8737E-03     76.7130E-03
            5278            5470     67.9100E-03     69.8375E-03
            5279            5452     72.9920E-03     74.6930E-03
            5279            5453     65.5398E-03     67.3644E-03
            5279            5470     67.9100E-03     69.8375E-03
            5279            5471     60.9319E-03     62.9426E-03
            5280            5453     65.5398E-03     67.3644E-03
            5280            5454     58.0520E-03     59.9830E-03
            5280            5471     60.9319E-03     62.9426E-03
            5280            5472     53.9327E-03     56.0242E-03
            5281            5454     58.0520E-03     59.9830E-03
            5281            5455     50.4776E-03     52.4749E-03
            5281            5472     53.9327E-03     56.0242E-03
            5281            5473     46.8862E-03     48.9971E-03
            5282            5455     50.4776E-03     52.4749E-03
            5282            5456     42.6776E-03     44.5715E-03
            5282            5473     46.8862E-03     48.9971E-03
            5282            5474     39.8330E-03     41.8570E-03
            5283            5456     42.6776E-03     44.5715E-03
            5283            5457     34.6209E-03     36.3241E-03
            5283            5474     39.8330E-03     41.8570E-03
            5283            5475     32.7792E-03     34.4897E-03
            5284            5457     34.6209E-03     36.3241E-03
            5284            5458     25.4323E-03     28.3505E-03
            5284            5475     32.7792E-03     34.4897E-03
            5284            5476     25.9743E-03     27.0742E-03
            5285             715     18.6132E-03     20.0606E-03
            5285             716     18.5608E-03     21.2912E-03
            5285            5458     25.4323E-03     28.3505E-03
            5285            5476     25.9743E-03     27.0742E-03
            5286              35     136.159E-03     139.211E-03
            5286             824     127.874E-03     130.572E-03
            5286             942     147.960E-03     148.184E-03
            5286            5459     142.257E-03     142.777E-03
            5287             824     127.874E-03     130.572E-03
            5287             825     120.427E-03     123.252E-03
            5287            5459     142.257E-03     142.777E-03
            5287            5460     135.973E-03     136.862E-03
            5288             825     120.427E-03     123.252E-03
            5288             826     113.785E-03     116.691E-03
            5288            5460     135.973E-03     136.862E-03
            5288            5461     129.512E-03     130.609E-03
            5289             826     113.785E-03     116.691E-03
            5289             827     107.379E-03     110.487E-03
            5289            5461     129.512E-03     130.609E-03
            5289            5462     122.836E-03     124.120E-03
            5290             827     107.379E-03     110.487E-03
            5290             828     101.236E-03     104.443E-03
            5290            5462     122.836E-03     124.120E-03
            5290            5463     116.113E-03     117.493E-03
            5291             828     101.236E-03     104.443E-03
            5291             829     95.1548E-03     98.4835E-03
            5291            5463     116.113E-03     117.493E-03
            5291            5464     109.317E-03     110.806E-03
            5292             829     95.1548E-03     98.4835E-03
            5292             830     89.1567E-03     92.5353E-03
            5292            5464     109.317E-03     110.806E-03
            5292            5465     102.495E-03     104.039E-03
            5293             830     89.1567E-03     92.5353E-03
            5293             831     83.1608E-03     86.5904E-03
            5293            5465     102.495E-03     104.039E-03
            5293            5466     95.6240E-03     97.2535E-03
            5294             831     83.1608E-03     86.5904E-03
            5294             832     77.1861E-03     80.6268E-03
            5294            5466     95.6240E-03     97.2535E-03
            5294            5467     88.7348E-03     90.4220E-03
            5295             832     77.1861E-03     80.6268E-03
            5295             833     71.2052E-03     74.6535E-03
            5295            5467     88.7348E-03     90.4220E-03
            5295            5468     81.8103E-03     83.5793E-03
            5296             833     71.2052E-03     74.6535E-03
            5296             834     65.2411E-03     68.6699E-03
            5296            5468     81.8103E-03     83.5793E-03
            5296            5469     74.8737E-03     76.7130E-03
            5297             834     65.2411E-03     68.6699E-03
            5297             835     59.2962E-03     62.6914E-03
            5297            5469     74.8737E-03     76.7130E-03
            5297            5470     67.9100E-03     69.8375E-03
            5298             835     59.2962E-03     62.6914E-03
            5298             836     53.4102E-03     56.7347E-03
            5298            5470     67.9100E-03     69.8375E-03
            5298            5471     60.9319E-03     62.9426E-03
            5299             836     53.4102E-03     56.7347E-03
            5299             837     47.6120E-03     50.8256E-03
            5299            5471     60.9319E-03     62.9426E-03
            5299            5472     53.9327E-03     56.0242E-03
            5300             837     47.6120E-03     50.8256E-03
            5300             838     41.9925E-03     45.0232E-03
            5300            5472     53.9327E-03     56.0242E-03
            5300            5473     46.8862E-03     48.9971E-03
            5301             838     41.9925E-03     45.0232E-03
            5301             839     36.6390E-03     39.3934E-03
            5301            5473     46.8862E-03     48.9971E-03
            5301            5474     39.8330E-03     41.8570E-03
            5302             839     36.6390E-03     39.3934E-03
            5302             840     31.8186E-03     34.1686E-03
            5302            5474     39.8330E-03     41.8570E-03
            5302            5475     32.7792E-03     34.4897E-03
            5303             840     31.8186E-03     34.1686E-03
            5303             841     28.2964E-03     29.9117E-03
            5303            5475     32.7792E-03     34.4897E-03
            5303            5476     25.9743E-03     27.0742E-03
            5304              33     22.0856E-03     23.0386E-03
            5304             715     18.6132E-03     20.0606E-03
            5304             841     28.2964E-03     29.9117E-03
            5304            5476     25.9743E-03     27.0742E-03
            5305              27     202.695E-03     225.860E-03
            5305             565     198.616E-03     208.357E-03
            5305             742     191.514E-03     190.313E-03
            5305            5477     175.651E-03     179.320E-03
            5306              29     190.137E-03     194.090E-03
            5306             565     198.616E-03     208.357E-03
            5306             947     159.878E-03     164.637E-03
            5306            5477     175.651E-03     179.320E-03
            5307             741     185.978E-03     180.069E-03
            5307             742     191.514E-03     190.313E-03
            5307            5477     175.651E-03     179.320E-03
            5307            5478     177.761E-03     179.574E-03
            5308             946     165.756E-03     169.812E-03
            5308             947     159.878E-03     164.637E-03
            5308            5477     175.651E-03     179.320E-03
            5308            5478     177.761E-03     179.574E-03
            5309             740     172.545E-03     179.554E-03
            5309             741     185.978E-03     180.069E-03
            5309            5478     177.761E-03     179.574E-03
            5309            5479     173.942E-03     178.122E-03
            5310             945     166.480E-03     170.068E-03
            5310             946     165.756E-03     169.812E-03
            5310            5478     177.761E-03     179.574E-03
            5310            5479     173.942E-03     178.122E-03
            5311             739     172.692E-03     167.443E-03
            5311             740     172.545E-03     179.554E-03
            5311            5479     173.942E-03     178.122E-03
            5311            5480     169.634E-03     171.246E-03
            5312             944     163.427E-03     166.147E-03
            5312             945     166.480E-03     170.068E-03
            5312            5479     173.942E-03     178.122E-03
            5312            5480     169.634E-03     171.246E-03
            5313             738     166.914E-03     162.248E-03
            5313             739     172.692E-03     167.443E-03
            5313            5480     169.634E-03     171.246E-03
            5313            5481     162.453E-03     161.599E-03
            5314             943     158.183E-03     157.983E-03
            5314             944     163.427E-03     166.147E-03
            5314            5480     169.634E-03     171.246E-03
            5314            5481     162.453E-03     161.599E-03
            5315             737     155.334E-03     159.005E-03
            5315             738     166.914E-03     162.248E-03
            5315            5481     162.453E-03     161.599E-03
            5315            5482     152.785E-03     153.311E-03
            5316             942     147.960E-03     148.184E-03
            5316             943     158.183E-03     157.983E-03
            5316            5481     162.453E-03     161.599E-03
            5316            5482     152.785E-03     153.311E-03
            5317              34     159.785E-03     170.008E-03
            5317             737     155.334E-03     159.005E-03
            5317             788     148.849E-03     153.881E-03
            5317            5482     152.785E-03     153.311E-03
            5318              35     136.159E-03     139.211E-03
            5318             788     148.849E-03     153.881E-03
            5318             942     147.960E-03     148.184E-03
            5318            5482     152.785E-03     153.311E-03
            5319              38     7.99197E-03     6.65555E-03
            5319             912     872.842E-06     958.717E-06
            5319             948     5.66927E-03     6.55470E-03
            5319            5483     1.15301E-03     1.22741E-03
            5320              15     4.87554E-03     8.45815E-03
            5320             948     5.66927E-03     6.55470E-03
            5320             949     1.49944E-03     1.52629E-03
            5320            5483     1.15301E-03     1.22741E-03
            5321             912     872.842E-06     958.717E-06
            5321             913     867.506E-06     905.706E-06
            5321            5483     1.15301E-03     1.22741E-03
            5321            5484     986.161E-06     993.347E-06
            5322             949     1.49944E-03     1.52629E-03
            5322             950     1.17882E-03     1.13595E-03
            5322            5483     1.15301E-03     1.22741E-03
            5322            5484     986.161E-06     993.347E-06
            5323             913     867.506E-06     905.706E-06
            5323             914     750.930E-06     786.064E-06
            5323            5484     986.161E-06     993.347E-06
            5323            5485     733.726E-06     762.202E-06
            5324             950     1.17882E-03     1.13595E-03
            5324             951     804.386E-06     858.428E-06
            5324            5484     986.161E-06     993.347E-06
            5324            5485     733.726E-06     762.202E-06
            5325             914     750.930E-06     786.064E-06
            5325             915     621.540E-06     656.864E-06
            5325            5485     733.726E-06     762.202E-06
            5325            5486     515.911E-06     522.168E-06
            5326             951     804.386E-06     858.428E-06
            5326             952     565.285E-06     538.913E-06
            5326            5485     733.726E-06     762.202E-06
            5326            5486     515.911E-06     522.168E-06
            5327             915     621.540E-06     656.864E-06
            5327             916     559.104E-06     552.825E-06
            5327            5486     515.911E-06     522.168E-06
            5327            5487     351.468E-06     343.879E-06
            5328             952     565.285E-06     538.913E-06
            5328             953     362.567E-06     348.872E-06
            5328            5486     515.911E-06     522.168E-06
            5328            5487     351.468E-06     343.879E-06
            5329             916     559.104E-06     552.825E-06
            5329             917     513.935E-06     444.354E-06
            5329            5487     351.468E-06     343.879E-06
            5329            5488     327.926E-06     340.291E-06
            5330             953     362.567E-06     348.872E-06
            5330             954     344.888E-06     439.307E-06
            5330            5487     351.468E-06     343.879E-06
            5330            5488     327.926E-06     340.291E-06
            5331              39     480.370E-06     381.279E-06
            5331             917     513.935E-06     444.354E-06
            5331             955     356.110E-06     403.533E-06
            5331            5488     327.926E-06     340.291E-06
            5332              41     387.561E-06     595.394E-06
            5332             954     344.888E-06     439.307E-06
            5332             955     356.110E-06     403.533E-06
            5332            5488     327.926E-06     340.291E-06
            5333               9     41.3144E-03     41.0548E-03
            5333             178     43.8699E-03     46.3684E-03
            5333             749     47.9738E-03     48.4071E-03
            5333            5489     50.6897E-03     53.9203E-03
            5334             177     51.3626E-03     53.2349E-03
            5334             178     43.8699E-03     46.3684E-03
            5334            5489     50.6897E-03     53.9203E-03
            5334            5490     59.0085E-03     59.7729E-03
            5335             176     52.4636E-03     51.6291E-03
            5335             177     51.3626E-03     53.2349E-03
            5335            5490     59.0085E-03     59.7729E-03
            5335            5491     60.6764E-03     58.7489E-03
            5336             175     51.1952E-03     53.1777E-03
            5336             176     52.4636E-03     51.6291E-03
            5336            5491     60.6764E-03     58.7489E-03
            5336            5492     58.5280E-03     61.8188E-03
            5337             174     53.4805E-03     53.2168E-03
            5337             175     51.1952E-03     53.1777E-03
            5337            5492     58.5280E-03     61.8188E-03
            5337            5493     60.7343E-03     60.9784E-03
            5338             173     53.3894E-03     50.4953E-03
            5338             174     53.4805E-03     53.2168E-03
            5338            5493     60.7343E-03     60.9784E-03
            5338            5494     59.6024E-03     56.8357E-03
            5339               7     79.7885E-03     80.1710E-03
            5339             173     53.3894E-03     50.4953E-03
            5339             557     93.5777E-03     91.8350E-03
            5339            5494     59.6024E-03     56.8357E-03
            5340             749     47.9738E-03     48.4071E-03
            5340             750     74.8954E-03     80.5331E-03
            5340            5489     50.6897E-03     53.9203E-03
            5340            5495     76.3661E-03     82.1619E-03
            5341            5489     50.6897E-03     53.9203E-03
            5341            5490     59.0085E-03     59.7729E-03
            5341            5495     76.3661E-03     82.1619E-03
            5341            5496     87.4615E-03     85.7906E-03
            5342            5490     59.0085E-03     59.7729E-03
            5342            5491     60.6764E-03     58.7489E-03
            5342            5496     87.4615E-03     85.7906E-03
            5342            5497     92.9229E-03     88.5333E-03
            5343            5491     60.6764E-03     58.7489E-03
            5343            5492     58.5280E-03     61.8188E-03
            5343            5497     92.9229E-03     88.5333E-03
            5343            5498     88.8999E-03     96.0715E-03
            5344            5492     58.5280E-03     61.8188E-03
            5344            5493     60.7343E-03     60.9784E-03
            5344            5498     88.8999E-03     96.0715E-03
            5344            5499     97.3845E-03     93.1805E-03
            5345            5493     60.7343E-03     60.9784E-03
            5345            5494     59.6024E-03     56.8357E-03
            5345            5499     97.3845E-03     93.1805E-03
            5345            5500     94.1669E-03     90.1625E-03
            5346             556     123.264E-03     127.418E-03
            5346             557     93.5777E-03     91.8350E-03
            5346            5494     59.6024E-03     56.8357E-03
            5346            5500     94.1669E-03     90.1625E-03
            5347             750     74.8954E-03     80.5331E-03
            5347             751     104.366E-03     118.118E-03
            5347            5495     76.3661E-03     82.1619E-03
            5347            5501     104.141E-03     115.782E-03
            5348            5495     76.3661E-03     82.1619E-03
            5348            5496     87.4615E-03     85.7906E-03
            5348            5501     104.141E-03     115.782E-03
            5348            5502     119.808E-03     117.728E-03
            5349            5496     87.4615E-03     85.7906E-03
            5349            5497     92.9229E-03     88.5333E-03
            5349            5502     119.808E-03     117.728E-03
            5349            5503     127.342E-03     119.197E-03
            5350            5497     92.9229E-03     88.5333E-03
            5350            5498     88.8999E-03     96.0715E-03
            5350            5503     127.342E-03     119.197E-03
            5350            5504     118.837E-03     129.984E-03
            5351            5498     88.8999E-03     96.0715E-03
            5351            5499     97.3845E-03     93.1805E-03
            5351            5504     118.837E-03     129.984E-03
            5351            5505     135.958E-03     123.847E-03
            5352            5499     97.3845E-03     93.1805E-03
            5352            5500     94.1669E-03     90.1625E-03
            5352            5505     135.958E-03     123.847E-03
            5352            5506     132.945E-03     126.368E-03
            5353             555     155.136E-03     168.606E-03
            5353             556     123.264E-03     127.418E-03
            5353            5500     94.1669E-03     90.1625E-03
            5353            5506     132.945E-03     126.368E-03
            5354             751     104.366E-03     118.118E-03
            5354             752     128.369E-03     149.881E-03
            5354            5501     104.141E-03     115.782E-03
            5354            5507     129.313E-03     145.850E-03
            5355            5501     104.141E-03     115.782E-03
            5355            5502     119.808E-03     117.728E-03
            5355            5507     129.313E-03     145.850E-03
            5355            5508     148.580E-03     147.885E-03
            5356            5502     119.808E-03     117.728E-03
            5356            5503     127.342E-03     119.197E-03
            5356            5508     148.580E-03     147.885E-03
            5356            5509     153.053E-03     144.815E-03
            5357            5503     127.342E-03     119.197E-03
            5357            5504     118.837E-03     129.984E-03
            5357            5509     153.053E-03     144.815E-03
            5357            5510     138.271E-03     157.578E-03
            5358            5504     118.837E-03     129.984E-03
            5358            5505     135.958E-03     123.847E-03
            5358            5510     138.271E-03     157.578E-03
            5358            5511     163.679E-03     151.615E-03
            5359            5505     135.958E-03     123.847E-03
            5359            5506     132.945E-03     126.368E-03
            5359            5511     163.679E-03     151.615E-03
            5359            5512     163.289E-03     160.528E-03
            5360             554     175.319E-03     205.489E-03
            5360             555     155.136E-03     168.606E-03
            5360            5506     132.945E-03     126.368E-03
            5360            5512     163.289E-03     160.528E-03
            5361             752     128.369E-03     149.881E-03
            5361             753     150.237E-03     169.476E-03
            5361            5507     129.313E-03     145.850E-03
            5361            5513     148.385E-03     160.298E-03
            5362            5507     129.313E-03     145.850E-03
            5362            5508     148.580E-03     147.885E-03
            5362            5513     148.385E-03     160.298E-03
            5362            5514     165.551E-03     161.786E-03
            5363            5508     148.580E-03     147.885E-03
            5363            5509     153.053E-03     144.815E-03
            5363            5514     165.551E-03     161.786E-03
            5363            5515     167.894E-03     159.611E-03
            5364            5509     153.053E-03     144.815E-03
            5364            5510     138.271E-03     157.578E-03
            5364            5515     167.894E-03     159.611E-03
            5364            5516     156.598E-03     173.691E-03
            5365            5510     138.271E-03     157.578E-03
            5365            5511     163.679E-03     151.615E-03
            5365            5516     156.598E-03     173.691E-03
            5365            5517     181.808E-03     171.639E-03
            5366            5511     163.679E-03     151.615E-03
            5366            5512     163.289E-03     160.528E-03
            5366            5517     181.808E-03     171.639E-03
            5366            5518     186.557E-03     184.992E-03
            5367             553     189.649E-03     226.300E-03
            5367             554     175.319E-03     205.489E-03
            5367            5512     163.289E-03     160.528E-03
            5367            5518     186.557E-03     184.992E-03
            5368              34     159.785E-03     170.008E-03
            5368             737     155.334E-03     159.005E-03
            5368             753     150.237E-03     169.476E-03
            5368            5513     148.385E-03     160.298E-03
            5369             737     155.334E-03     159.005E-03
            5369             738     166.914E-03     162.248E-03
            5369            5513     148.385E-03     160.298E-03
            5369            5514     165.551E-03     161.786E-03
            5370             738     166.914E-03     162.248E-03
            5370             739     172.692E-03     167.443E-03
            5370            5514     165.551E-03     161.786E-03
            5370            5515     167.894E-03     159.611E-03
            5371             739     172.692E-03     167.443E-03
            5371             740     172.545E-03     179.554E-03
            5371            5515     167.894E-03     159.611E-03
            5371            5516     156.598E-03     173.691E-03
            5372             740     172.545E-03     179.554E-03
            5372             741     185.978E-03     180.069E-03
            5372            5516     156.598E-03     173.691E-03
            5372            5517     181.808E-03     171.639E-03
            5373             741     185.978E-03     180.069E-03
            5373             742     191.514E-03     190.313E-03
            5373            5517     181.808E-03     171.639E-03
            5373            5518     186.557E-03     184.992E-03
            5374              27     202.695E-03     225.860E-03
            5374             553     189.649E-03     226.300E-03
            5374             742     191.514E-03     190.313E-03
            5374            5518     186.557E-03     184.992E-03
            5431              36     5.23019E-03     2.89028E-03
            5431             893     5.98308E-03     3.59410E-03
            5431             993     872.842E-06     958.717E-06
            5431            5561     765.902E-06     853.194E-06
            5432             892     6.07779E-03     3.71902E-03
            5432             893     5.98308E-03     3.59410E-03
            5432            5561     765.902E-06     853.194E-06
            5432            5562     735.783E-06     818.985E-06
            5433             891     5.81311E-03     3.57752E-03
            5433             892     6.07779E-03     3.71902E-03
            5433            5562     735.783E-06     818.985E-06
            5433            5563     715.815E-06     797.343E-06
            5434             890     5.68138E-03     3.50653E-03
            5434             891     5.81311E-03     3.57752E-03
            5434            5563     715.815E-06     797.343E-06
            5434            5564     702.559E-06     782.160E-06
            5435             889     5.48127E-03     3.35716E-03
            5435             890     5.68138E-03     3.50653E-03
            5435            5564     702.559E-06     782.160E-06
            5435            5565     687.237E-06     765.386E-06
            5436             888     5.32306E-03     3.26515E-03
            5436             889     5.48127E-03     3.35716E-03
            5436            5565     687.237E-06     765.386E-06
            5436            5566     672.032E-06     749.141E-06
            5437             887     5.13978E-03     3.14540E-03
            5437             888     5.32306E-03     3.26515E-03
            5437            5566     672.032E-06     749.141E-06
            5437            5567     656.938E-06     732.214E-06
            5438             886     4.97167E-03     3.05249E-03
            5438             887     5.13978E-03     3.14540E-03
            5438            5567     656.938E-06     732.214E-06
            5438            5568     642.581E-06     716.028E-06
            5439             885     4.79581E-03     2.95567E-03
            5439             886     4.97167E-03     3.05249E-03
            5439            5568     642.581E-06     716.028E-06
            5439            5569     629.709E-06     700.245E-06
            5440             884     4.62818E-03     2.87940E-03
            5440             885     4.79581E-03     2.95567E-03
            5440            5569     629.709E-06     700.245E-06
            5440            5570     618.190E-06     685.556E-06
            5441             883     4.45973E-03     2.80809E-03
            5441             884     4.62818E-03     2.87940E-03
            5441            5570     618.190E-06     685.556E-06
            5441            5571     608.590E-06     671.732E-06
            5442             882     4.29941E-03     2.76126E-03
            5442             883     4.45973E-03     2.80809E-03
            5442            5571     608.590E-06     671.732E-06
            5442            5572     600.558E-06     658.987E-06
            5443             881     4.14043E-03     2.71721E-03
            5443             882     4.29941E-03     2.76126E-03
            5443            5572     600.558E-06     658.987E-06
            5443            5573     594.626E-06     647.249E-06
            5444             880     3.99859E-03     2.71346E-03
            5444             881     4.14043E-03     2.71721E-03
            5444            5573     594.626E-06     647.249E-06
            5444            5574     590.158E-06     636.276E-06
            5445             879     3.85654E-03     2.72461E-03
            5445             880     3.99859E-03     2.71346E-03
            5445            5574     590.158E-06     636.276E-06
            5445            5575     587.230E-06     626.438E-06
            5446             878     3.79926E-03     2.82507E-03
            5446             879     3.85654E-03     2.72461E-03
            5446            5575     587.230E-06     626.438E-06
            5446            5576     583.352E-06     619.080E-06
            5447             877     3.66761E-03     3.08416E-03
            5447             878     3.79926E-03     2.82507E-03
            5447            5576     583.352E-06     619.080E-06
            5447            5577     575.291E-06     620.661E-06
            5448             876     3.41558E-03     4.23558E-03
            5448             877     3.66761E-03     3.08416E-03
            5448            5577     575.291E-06     620.661E-06
            5448            5578     569.519E-06     631.032E-06
            5449              37     4.91635E-03     6.04759E-03
            5449             876     3.41558E-03     4.23558E-03
            5449             941     568.651E-06     636.833E-06
            5449            5578     569.519E-06     631.032E-06
            5450             992     867.506E-06     905.706E-06
            5450             993     872.842E-06     958.717E-06
            5450            5561     765.902E-06     853.194E-06
            5450            5579     799.680E-06     853.585E-06
            5451            5561     765.902E-06     853.194E-06
            5451            5562     735.783E-06     818.985E-06
            5451            5579     799.680E-06     853.585E-06
            5451            5580     773.584E-06     832.805E-06
            5452            5562     735.783E-06     818.985E-06
            5452            5563     715.815E-06     797.343E-06
            5452            5580     773.584E-06     832.805E-06
            5452            5581     757.770E-06     813.843E-06
            5453            5563     715.815E-06     797.343E-06
            5453            5564     702.559E-06     782.160E-06
            5453            5581     757.770E-06     813.843E-06
            5453            5582     737.173E-06     792.622E-06
            5454            5564     702.559E-06     782.160E-06
            5454            5565     687.237E-06     765.386E-06
            5454            5582     737.173E-06     792.622E-06
            5454            5583     718.229E-06     772.747E-06
            5455            5565     687.237E-06     765.386E-06
            5455            5566     672.032E-06     749.141E-06
            5455            5583     718.229E-06     772.747E-06
            5455            5584     699.530E-06     753.205E-06
            5456            5566     672.032E-06     749.141E-06
            5456            5567     656.938E-06     732.214E-06
            5456            5584     699.530E-06     753.205E-06
            5456            5585     682.539E-06     735.345E-06
            5457            5567     656.938E-06     732.214E-06
            5457            5568     642.581E-06     716.028E-06
            5457            5585     682.539E-06     735.345E-06
            5457            5586     667.141E-06     718.556E-06
            5458            5568     642.581E-06     716.028E-06
            5458            5569     629.709E-06     700.245E-06
            5458            5586     667.141E-06     718.556E-06
            5458            5587     653.396E-06     703.273E-06
            5459            5569     629.709E-06     700.245E-06
            5459            5570     618.190E-06     685.556E-06
            5459            5587     653.396E-06     703.273E-06
            5459            5588     641.450E-06     689.170E-06
            5460            5570     618.190E-06     685.556E-06
            5460            5571     608.590E-06     671.732E-06
            5460            5588     641.450E-06     689.170E-06
            5460            5589     631.046E-06     676.386E-06
            5461            5571     608.590E-06     671.732E-06
            5461            5572     600.558E-06     658.987E-06
            5461            5589     631.046E-06     676.386E-06
            5461            5590     622.535E-06     664.868E-06
            5462            5572     600.558E-06     658.987E-06
            5462            5573     594.626E-06     647.249E-06
            5462            5590     622.535E-06     664.868E-06
            5462            5591     615.549E-06     654.481E-06
            5463            5573     594.626E-06     647.249E-06
            5463            5574     590.158E-06     636.276E-06
            5463            5591     615.549E-06     654.481E-06
            5463            5592     610.474E-06     645.759E-06
            5464            5574     590.158E-06     636.276E-06
            5464            5575     587.230E-06     626.438E-06
            5464            5592     610.474E-06     645.759E-06
            5464            5593     608.095E-06     636.989E-06
            5465            5575     587.230E-06     626.438E-06
            5465            5576     583.352E-06     619.080E-06
            5465            5593     608.095E-06     636.989E-06
            5465            5594     605.050E-06     631.088E-06
            5466            5576     583.352E-06     619.080E-06
            5466            5577     575.291E-06     620.661E-06
            5466            5594     605.050E-06     631.088E-06
            5466            5595     608.569E-06     626.316E-06
            5467            5577     575.291E-06     620.661E-06
            5467            5578     569.519E-06     631.032E-06
            5467            5595     608.569E-06     626.316E-06
            5467            5596     630.967E-06     603.833E-06
            5468             940     647.427E-06     585.361E-06
            5468             941     568.651E-06     636.833E-06
            5468            5578     569.519E-06     631.032E-06
            5468            5596     630.967E-06     603.833E-06
            5469             991     750.930E-06     786.064E-06
            5469             992     867.506E-06     905.706E-06
            5469            5579     799.680E-06     853.585E-06
            5469            5597     794.947E-06     831.959E-06
            5470            5579     799.680E-06     853.585E-06
            5470            5580     773.584E-06     832.805E-06
            5470            5597     794.947E-06     831.959E-06
            5470            5598     802.637E-06     835.319E-06
            5471            5580     773.584E-06     832.805E-06
            5471            5581     757.770E-06     813.843E-06
            5471            5598     802.637E-06     835.319E-06
            5471            5599     789.550E-06     820.602E-06
            5472            5581     757.770E-06     813.843E-06
            5472            5582     737.173E-06     792.622E-06
            5472            5599     789.550E-06     820.602E-06
            5472            5600     768.395E-06     798.105E-06
            5473            5582     737.173E-06     792.622E-06
            5473            5583     718.229E-06     772.747E-06
            5473            5600     768.395E-06     798.105E-06
            5473            5601     745.989E-06     775.505E-06
            5474            5583     718.229E-06     772.747E-06
            5474            5584     699.530E-06     753.205E-06
            5474            5601     745.989E-06     775.505E-06
            5474            5602     725.579E-06     754.639E-06
            5475            5584     699.530E-06     753.205E-06
            5475            5585     682.539E-06     735.345E-06
            5475            5602     725.579E-06     754.639E-06
            5475            5603     707.363E-06     736.066E-06
            5476            5585     682.539E-06     735.345E-06
            5476            5586     667.141E-06     718.556E-06
            5476            5603     707.363E-06     736.066E-06
            5476            5604     691.490E-06     719.713E-06
            5477            5586     667.141E-06     718.556E-06
            5477            5587     653.396E-06     703.273E-06
            5477            5604     691.490E-06     719.713E-06
            5477            5605     677.579E-06     705.154E-06
            5478            5587     653.396E-06     703.273E-06
            5478            5588     641.450E-06     689.170E-06
            5478            5605     677.579E-06     705.154E-06
            5478            5606     665.402E-06     692.248E-06
            5479            5588     641.450E-06     689.170E-06
            5479            5589     631.046E-06     676.386E-06
            5479            5606     665.402E-06     692.248E-06
            5479            5607     654.873E-06     680.767E-06
            5480            5589     631.046E-06     676.386E-06
            5480            5590     622.535E-06     664.868E-06
            5480            5607     654.873E-06     680.767E-06
            5480            5608     645.765E-06     670.699E-06
            5481            5590     622.535E-06     664.868E-06
            5481            5591     615.549E-06     654.481E-06
            5481            5608     645.765E-06     670.699E-06
            5481            5609     638.301E-06     662.184E-06
            5482            5591     615.549E-06     654.481E-06
            5482            5592     610.474E-06     645.759E-06
            5482            5609     638.301E-06     662.184E-06
            5482            5610     632.584E-06     654.927E-06
            5483            5592     610.474E-06     645.759E-06
            5483            5593     608.095E-06     636.989E-06
            5483            5610     632.584E-06     654.927E-06
            5483            5611     629.152E-06     649.417E-06
            5484            5593     608.095E-06     636.989E-06
            5484            5594     605.050E-06     631.088E-06
            5484            5611     629.152E-06     649.417E-06
            5484            5612     633.504E-06     640.317E-06
            5485            5594     605.050E-06     631.088E-06
            5485            5595     608.569E-06     626.316E-06
            5485            5612     633.504E-06     640.317E-06
            5485            5613     647.238E-06     619.250E-06
            5486            5595     608.569E-06     626.316E-06
            5486            5596     630.967E-06     603.833E-06
            5486            5613     647.238E-06     619.250E-06
            5486            5614     658.991E-06     597.519E-06
            5487             939     662.237E-06     589.747E-06
            5487             940     647.427E-06     585.361E-06
            5487            5596     630.967E-06     603.833E-06
            5487            5614     658.991E-06     597.519E-06
            5488             990     621.540E-06     656.864E-06
            5488             991     750.930E-06     786.064E-06
            5488            5597     794.947E-06     831.959E-06
            5488            5615     760.779E-06     778.384E-06
            5489            5597     794.947E-06     831.959E-06
            5489            5598     802.637E-06     835.319E-06
            5489            5615     760.779E-06     778.384E-06
            5489            5616     808.406E-06     811.996E-06
            5490            5598     802.637E-06     835.319E-06
            5490            5599     789.550E-06     820.602E-06
            5490            5616     808.406E-06     811.996E-06
            5490            5617     802.749E-06     805.629E-06
            5491            5599     789.550E-06     820.602E-06
            5491            5600     768.395E-06     798.105E-06
            5491            5617     802.749E-06     805.629E-06
            5491            5618     786.855E-06     789.007E-06
            5492            5600     768.395E-06     798.105E-06
            5492            5601     745.989E-06     775.505E-06
            5492            5618     786.855E-06     789.007E-06
            5492            5619     766.366E-06     768.701E-06
            5493            5601     745.989E-06     775.505E-06
            5493            5602     725.579E-06     754.639E-06
            5493            5619     766.366E-06     768.701E-06
            5493            5620     747.420E-06     750.132E-06
            5494            5602     725.579E-06     754.639E-06
            5494            5603     707.363E-06     736.066E-06
            5494            5620     747.420E-06     750.132E-06
            5494            5621     730.406E-06     733.447E-06
            5495            5603     707.363E-06     736.066E-06
            5495            5604     691.490E-06     719.713E-06
            5495            5621     730.406E-06     733.447E-06
            5495            5622     715.432E-06     718.931E-06
            5496            5604     691.490E-06     719.713E-06
            5496            5605     677.579E-06     705.154E-06
            5496            5622     715.432E-06     718.931E-06
            5496            5623     702.240E-06     706.215E-06
            5497            5605     677.579E-06     705.154E-06
            5497            5606     665.402E-06     692.248E-06
            5497            5623     702.240E-06     706.215E-06
            5497            5624     690.477E-06     695.025E-06
            5498            5606     665.402E-06     692.248E-06
            5498            5607     654.873E-06     680.767E-06
            5498            5624     690.477E-06     695.025E-06
            5498            5625     680.065E-06     685.252E-06
            5499            5607     654.873E-06     680.767E-06
            5499            5608     645.765E-06     670.699E-06
            5499            5625     680.065E-06     685.252E-06
            5499            5626     670.833E-06     676.811E-06
            5500            5608     645.765E-06     670.699E-06
            5500            5609     638.301E-06     662.184E-06
            5500            5626     670.833E-06     676.811E-06
            5500            5627     662.832E-06     669.921E-06
            5501            5609     638.301E-06     662.184E-06
            5501            5610     632.584E-06     654.927E-06
            5501            5627     662.832E-06     669.921E-06
            5501            5628     656.311E-06     664.423E-06
            5502            5610     632.584E-06     654.927E-06
            5502            5611     629.152E-06     649.417E-06
            5502            5628     656.311E-06     664.423E-06
            5502            5629     651.476E-06     660.767E-06
            5503            5611     629.152E-06     649.417E-06
            5503            5612     633.504E-06     640.317E-06
            5503            5629     651.476E-06     660.767E-06
            5503            5630     653.358E-06     655.000E-06
            5504            5612     633.504E-06     640.317E-06
            5504            5613     647.238E-06     619.250E-06
            5504            5630     653.358E-06     655.000E-06
            5504            5631     665.492E-06     637.809E-06
            5505            5613     647.238E-06     619.250E-06
            5505            5614     658.991E-06     597.519E-06
            5505            5631     665.492E-06     637.809E-06
            5505            5632     676.709E-06     615.424E-06
            5506             938     679.686E-06     605.652E-06
            5506             939     662.237E-06     589.747E-06
            5506            5614     658.991E-06     597.519E-06
            5506            5632     676.709E-06     615.424E-06
            5507             989     559.104E-06     552.825E-06
            5507             990     621.540E-06     656.864E-06
            5507            5615     760.779E-06     778.384E-06
            5507            5633     726.524E-06     700.707E-06
            5508            5615     760.779E-06     778.384E-06
            5508            5616     808.406E-06     811.996E-06
            5508            5633     726.524E-06     700.707E-06
            5508            5634     781.153E-06     753.810E-06
            5509            5616     808.406E-06     811.996E-06
            5509            5617     802.749E-06     805.629E-06
            5509            5634     781.153E-06     753.810E-06
            5509            5635     796.916E-06     767.762E-06
            5510            5617     802.749E-06     805.629E-06
            5510            5618     786.855E-06     789.007E-06
            5510            5635     796.916E-06     767.762E-06
            5510            5636     790.090E-06     762.299E-06
            5511            5618     786.855E-06     789.007E-06
            5511            5619     766.366E-06     768.701E-06
            5511            5636     790.090E-06     762.299E-06
            5511            5637     778.679E-06     752.037E-06
            5512            5619     766.366E-06     768.701E-06
            5512            5620     747.420E-06     750.132E-06
            5512            5637     778.679E-06     752.037E-06
            5512            5638     765.048E-06     739.630E-06
            5513            5620     747.420E-06     750.132E-06
            5513            5621     730.406E-06     733.447E-06
            5513            5638     765.048E-06     739.630E-06
            5513            5639     751.855E-06     727.874E-06
            5514            5621     730.406E-06     733.447E-06
            5514            5622     715.432E-06     718.931E-06
            5514            5639     751.855E-06     727.874E-06
            5514            5640     739.397E-06     716.855E-06
            5515            5622     715.432E-06     718.931E-06
            5515            5623     702.240E-06     706.215E-06
            5515            5640     739.397E-06     716.855E-06
            5515            5641     727.701E-06     706.942E-06
            5516            5623     702.240E-06     706.215E-06
            5516            5624     690.477E-06     695.025E-06
            5516            5641     727.701E-06     706.942E-06
            5516            5642     716.954E-06     698.039E-06
            5517            5624     690.477E-06     695.025E-06
            5517            5625     680.065E-06     685.252E-06
            5517            5642     716.954E-06     698.039E-06
            5517            5643     706.865E-06     690.203E-06
            5518            5625     680.065E-06     685.252E-06
            5518            5626     670.833E-06     676.811E-06
            5518            5643     706.865E-06     690.203E-06
            5518            5644     697.777E-06     683.532E-06
            5519            5626     670.833E-06     676.811E-06
            5519            5627     662.832E-06     669.921E-06
            5519            5644     697.777E-06     683.532E-06
            5519            5645     689.357E-06     677.932E-06
            5520            5627     662.832E-06     669.921E-06
            5520            5628     656.311E-06     664.423E-06
            5520            5645     689.357E-06     677.932E-06
            5520            5646     681.782E-06     674.202E-06
            5521            5628     656.311E-06     664.423E-06
            5521            5629     651.476E-06     660.767E-06
            5521            5646     681.782E-06     674.202E-06
            5521            5647     675.647E-06     671.025E-06
            5522            5629     651.476E-06     660.767E-06
            5522            5630     653.358E-06     655.000E-06
            5522            5647     675.647E-06     671.025E-06
            5522            5648     666.971E-06     672.721E-06
            5523            5630     653.358E-06     655.000E-06
            5523            5631     665.492E-06     637.809E-06
            5523            5648     666.971E-06     672.721E-06
            5523            5649     663.874E-06     678.113E-06
            5524            5631     665.492E-06     637.809E-06
            5524            5632     676.709E-06     615.424E-06
            5524            5649     663.874E-06     678.113E-06
            5524            5650     683.634E-06     663.046E-06
            5525             937     700.564E-06     646.348E-06
            5525             938     679.686E-06     605.652E-06
            5525            5632     676.709E-06     615.424E-06
            5525            5650     683.634E-06     663.046E-06
            5526             988     513.935E-06     444.354E-06
            5526             989     559.104E-06     552.825E-06
            5526            5633     726.524E-06     700.707E-06
            5526            5651     661.509E-06     593.026E-06
            5527            5633     726.524E-06     700.707E-06
            5527            5634     781.153E-06     753.810E-06
            5527            5651     661.509E-06     593.026E-06
            5527            5652     738.401E-06     674.392E-06
            5528            5634     781.153E-06     753.810E-06
            5528            5635     796.916E-06     767.762E-06
            5528            5652     738.401E-06     674.392E-06
            5528            5653     773.299E-06     712.417E-06
            5529            5635     796.916E-06     767.762E-06
            5529            5636     790.090E-06     762.299E-06
            5529            5653     773.299E-06     712.417E-06
            5529            5654     786.304E-06     727.328E-06
            5530            5636     790.090E-06     762.299E-06
            5530            5637     778.679E-06     752.037E-06
            5530            5654     786.304E-06     727.328E-06
            5530            5655     786.752E-06     730.275E-06
            5531            5637     778.679E-06     752.037E-06
            5531            5638     765.048E-06     739.630E-06
            5531            5655     786.752E-06     730.275E-06
            5531            5656     781.707E-06     727.410E-06
            5532            5638     765.048E-06     739.630E-06
            5532            5639     751.855E-06     727.874E-06
            5532            5656     781.707E-06     727.410E-06
            5532            5657     773.704E-06     721.728E-06
            5533            5639     751.855E-06     727.874E-06
            5533            5640     739.397E-06     716.855E-06
            5533            5657     773.704E-06     721.728E-06
            5533            5658     764.385E-06     715.127E-06
            5534            5640     739.397E-06     716.855E-06
            5534            5641     727.701E-06     706.942E-06
            5534            5658     764.385E-06     715.127E-06
            5534            5659     754.760E-06     708.239E-06
            5535            5641     727.701E-06     706.942E-06
            5535            5642     716.954E-06     698.039E-06
            5535            5659     754.760E-06     708.239E-06
            5535            5660     744.933E-06     701.830E-06
            5536            5642     716.954E-06     698.039E-06
            5536            5643     706.865E-06     690.203E-06
            5536            5660     744.933E-06     701.830E-06
            5536            5661     735.566E-06     695.982E-06
            5537            5643     706.865E-06     690.203E-06
            5537            5644     697.777E-06     683.532E-06
            5537            5661     735.566E-06     695.982E-06
            5537            5662     726.314E-06     690.987E-06
            5538            5644     697.777E-06     683.532E-06
            5538            5645     689.357E-06     677.932E-06
            5538            5662     726.314E-06     690.987E-06
            5538            5663     717.854E-06     686.994E-06
            5539            5645     689.357E-06     677.932E-06
            5539            5646     681.782E-06     674.202E-06
            5539            5663     717.854E-06     686.994E-06
            5539            5664     709.399E-06     683.890E-06
            5540            5646     681.782E-06     674.202E-06
            5540            5647     675.647E-06     671.025E-06
            5540            5664     709.399E-06     683.890E-06
            5540            5665     701.102E-06     682.609E-06
            5541            5647     675.647E-06     671.025E-06
            5541            5648     666.971E-06     672.721E-06
            5541            5665     701.102E-06     682.609E-06
            5541            5666     690.392E-06     684.411E-06
            5542            5648     666.971E-06     672.721E-06
            5542            5649     663.874E-06     678.113E-06
            5542            5666     690.392E-06     684.411E-06
            5542            5667     673.195E-06     697.830E-06
            5543            5649     663.874E-06     678.113E-06
            5543            5650     683.634E-06     663.046E-06
            5543            5667     673.195E-06     697.830E-06
            5543            5668     657.279E-06     724.306E-06
            5544             936     651.459E-06     738.993E-06
            5544             937     700.564E-06     646.348E-06
            5544            5650     683.634E-06     663.046E-06
            5544            5668     657.279E-06     724.306E-06
            5545              42     480.370E-06     381.279E-06
            5545             987     616.488E-06     529.941E-06
            5545             988     513.935E-06     444.354E-06
            5545            5651     661.509E-06     593.026E-06
            5546             986     714.759E-06     632.479E-06
            5546             987     616.488E-06     529.941E-06
            5546            5651     661.509E-06     593.026E-06
            5546            5652     738.401E-06     674.392E-06
            5547             985     758.937E-06     682.065E-06
            5547             986     714.759E-06     632.479E-06
            5547            5652     738.401E-06     674.392E-06
            5547            5653     773.299E-06     712.417E-06
            5548             984     783.599E-06     709.309E-06
            5548             985     758.937E-06     682.065E-06
            5548            5653     773.299E-06     712.417E-06
            5548            5654     786.304E-06     727.328E-06
            5549             983     790.833E-06     719.466E-06
            5549             984     783.599E-06     709.309E-06
            5549            5654     786.304E-06     727.328E-06
            5549            5655     786.752E-06     730.275E-06
            5550             982     790.324E-06     721.320E-06
            5550             983     790.833E-06     719.466E-06
            5550            5655     786.752E-06     730.275E-06
            5550            5656     781.707E-06     727.410E-06
            5551             981     785.005E-06     719.210E-06
            5551             982     790.324E-06     721.320E-06
            5551            5656     781.707E-06     727.410E-06
            5551            5657     773.704E-06     721.728E-06
            5552             980     777.412E-06     714.354E-06
            5552             981     785.005E-06     719.210E-06
            5552            5657     773.704E-06     721.728E-06
            5552            5658     764.385E-06     715.127E-06
            5553             979     768.639E-06     709.346E-06
            5553             980     777.412E-06     714.354E-06
            5553            5658     764.385E-06     715.127E-06
            5553            5659     754.760E-06     708.239E-06
            5554             978     759.450E-06     703.807E-06
            5554             979     768.639E-06     709.346E-06
            5554            5659     754.760E-06     708.239E-06
            5554            5660     744.933E-06     701.830E-06
            5555             977     750.241E-06     699.226E-06
            5555             978     759.450E-06     703.807E-06
            5555            5660     744.933E-06     701.830E-06
            5555            5661     735.566E-06     695.982E-06
            5556             976     741.062E-06     694.785E-06
            5556             977     750.241E-06     699.226E-06
            5556            5661     735.566E-06     695.982E-06
            5556            5662     726.314E-06     690.987E-06
            5557             975     732.491E-06     691.960E-06
            5557             976     741.062E-06     694.785E-06
            5557            5662     726.314E-06     690.987E-06
            5557            5663     717.854E-06     686.994E-06
            5558             974     723.541E-06     688.611E-06
            5558             975     732.491E-06     691.960E-06
            5558            5663     717.854E-06     686.994E-06
            5558            5664     709.399E-06     683.890E-06
            5559             973     714.945E-06     689.159E-06
            5559             974     723.541E-06     688.611E-06
            5559            5664     709.399E-06     683.890E-06
            5559            5665     701.102E-06     682.609E-06
            5560             972     704.295E-06     687.382E-06
            5560             973     714.945E-06     689.159E-06
            5560            5665     701.102E-06     682.609E-06
            5560            5666     690.392E-06     684.411E-06
            5561             971     688.610E-06     700.056E-06
            5561             972     704.295E-06     687.382E-06
            5561            5666     690.392E-06     684.411E-06
            5561            5667     673.195E-06     697.830E-06
            5562             970     642.107E-06     736.589E-06
            5562             971     688.610E-06     700.056E-06
            5562            5667     673.195E-06     697.830E-06
            5562            5668     657.279E-06     724.306E-06
            5563              40     604.197E-06     755.548E-06
            5563             936     651.459E-06     738.993E-06
            5563             970     642.107E-06     736.589E-06
            5563            5668     657.279E-06     724.306E-06
            5564              33     22.0856E-03     23.0386E-03
            5564             714     12.0053E-03     11.9469E-03
            5564             842     23.3931E-03     24.6105E-03
            5564            5669     14.0112E-03     12.6132E-03
            5565             713     6.07379E-03     6.53829E-03
            5565             714     12.0053E-03     11.9469E-03
            5565            5669     14.0112E-03     12.6132E-03
            5565            5670     6.00228E-03     6.18827E-03
            5566             712     8.80818E-03     11.0962E-03
            5566             713     6.07379E-03     6.53829E-03
            5566            5670     6.00228E-03     6.18827E-03
            5566            5671     7.42781E-03     10.0134E-03
            5567             711     16.3260E-03     19.2448E-03
            5567             712     8.80818E-03     11.0962E-03
            5567            5671     7.42781E-03     10.0134E-03
            5567            5672     14.9744E-03     18.3810E-03
            5568             710     24.4606E-03     27.6150E-03
            5568             711     16.3260E-03     19.2448E-03
            5568            5672     14.9744E-03     18.3810E-03
            5568            5673     22.9267E-03     26.6610E-03
            5569             709     32.6779E-03     35.9493E-03
            5569             710     24.4606E-03     27.6150E-03
            5569            5673     22.9267E-03     26.6610E-03
            5569            5674     30.7689E-03     34.7062E-03
            5570             708     40.9017E-03     44.2434E-03
            5570             709     32.6779E-03     35.9493E-03
            5570            5674     30.7689E-03     34.7062E-03
            5570            5675     38.5977E-03     42.6393E-03
            5571             707     49.1333E-03     52.5006E-03
            5571             708     40.9017E-03     44.2434E-03
            5571            5675     38.5977E-03     42.6393E-03
            5571            5676     46.3766E-03     50.4739E-03
            5572             706     57.3508E-03     60.7317E-03
            5572             707     49.1333E-03     52.5006E-03
            5572            5676     46.3766E-03     50.4739E-03
            5572            5677     54.1388E-03     58.2548E-03
            5573             705     65.5676E-03     68.9338E-03
            5573             706     57.3508E-03     60.7317E-03
            5573            5677     54.1388E-03     58.2548E-03
            5573            5678     61.8743E-03     65.9807E-03
            5574             704     73.7685E-03     77.1185E-03
            5574             705     65.5676E-03     68.9338E-03
            5574            5678     61.8743E-03     65.9807E-03
            5574            5679     69.6050E-03     73.6808E-03
            5575             703     81.9854E-03     85.2804E-03
            5575             704     73.7685E-03     77.1185E-03
            5575            5679     69.6050E-03     73.6808E-03
            5575            5680     77.3373E-03     81.3512E-03
            5576             702     90.2043E-03     93.4467E-03
            5576             703     81.9854E-03     85.2804E-03
            5576            5680     77.3373E-03     81.3512E-03
            5576            5681     85.1295E-03     89.0527E-03
            5577             701     98.5041E-03     101.626E-03
            5577             702     90.2043E-03     93.4467E-03
            5577            5681     85.1295E-03     89.0527E-03
            5577            5682     93.0122E-03     96.8077E-03
            5578             700     106.872E-03     109.896E-03
            5578             701     98.5041E-03     101.626E-03
            5578            5682     93.0122E-03     96.8077E-03
            5578            5683     101.169E-03     104.794E-03
            5579             699     115.504E-03     118.334E-03
            5579             700     106.872E-03     109.896E-03
            5579            5683     101.169E-03     104.794E-03
            5579            5684     109.680E-03     113.137E-03
            5580             698     124.396E-03     127.148E-03
            5580             699     115.504E-03     118.334E-03
            5580            5684     109.680E-03     113.137E-03
            5580            5685     119.130E-03     122.396E-03
            5581             697     134.106E-03     136.752E-03
            5581             698     124.396E-03     127.148E-03
            5581            5685     119.130E-03     122.396E-03
            5581            5686     129.734E-03     132.994E-03
            5582              32     144.763E-03     147.767E-03
            5582             697     134.106E-03     136.752E-03
            5582             994     143.934E-03     147.337E-03
            5582            5686     129.734E-03     132.994E-03
            5583             842     23.3931E-03     24.6105E-03
            5583             843     19.4994E-03     19.8388E-03
            5583            5669     14.0112E-03     12.6132E-03
            5583            5687     14.0396E-03     9.87484E-03
            5584            5669     14.0112E-03     12.6132E-03
            5584            5670     6.00228E-03     6.18827E-03
            5584            5687     14.0396E-03     9.87484E-03
            5584            5688     7.43369E-03     5.82196E-03
            5585            5670     6.00228E-03     6.18827E-03
            5585            5671     7.42781E-03     10.0134E-03
            5585            5688     7.43369E-03     5.82196E-03
            5585            5689     8.10804E-03     9.78479E-03
            5586            5671     7.42781E-03     10.0134E-03
            5586            5672     14.9744E-03     18.3810E-03
            5586            5689     8.10804E-03     9.78479E-03
            5586            5690     15.2119E-03     18.1513E-03
            5587            5672     14.9744E-03     18.3810E-03
            5587            5673     22.9267E-03     26.6610E-03
            5587            5690     15.2119E-03     18.1513E-03
            5587            5691     23.2387E-03     26.4863E-03
            5588            5673     22.9267E-03     26.6610E-03
            5588            5674     30.7689E-03     34.7062E-03
            5588            5691     23.2387E-03     26.4863E-03
            5588            5692     31.2646E-03     34.6730E-03
            5589            5674     30.7689E-03     34.7062E-03
            5589            5675     38.5977E-03     42.6393E-03
            5589            5692     31.2646E-03     34.6730E-03
            5589            5693     39.2660E-03     42.7687E-03
            5590            5675     38.5977E-03     42.6393E-03
            5590            5676     46.3766E-03     50.4739E-03
            5590            5693     39.2660E-03     42.7687E-03
            5590            5694     47.2578E-03     50.8117E-03
            5591            5676     46.3766E-03     50.4739E-03
            5591            5677     54.1388E-03     58.2548E-03
            5591            5694     47.2578E-03     50.8117E-03
            5591            5695     55.2366E-03     58.8205E-03
            5592            5677     54.1388E-03     58.2548E-03
            5592            5678     61.8743E-03     65.9807E-03
            5592            5695     55.2366E-03     58.8205E-03
            5592            5696     63.2195E-03     66.8191E-03
            5593            5678     61.8743E-03     65.9807E-03
            5593            5679     69.6050E-03     73.6808E-03
            5593            5696     63.2195E-03     66.8191E-03
            5593            5697     71.2073E-03     74.8139E-03
            5594            5679     69.6050E-03     73.6808E-03
            5594            5680     77.3373E-03     81.3512E-03
            5594            5697     71.2073E-03     74.8139E-03
            5594            5698     79.2335E-03     82.8385E-03
            5595            5680     77.3373E-03     81.3512E-03
            5595            5681     85.1295E-03     89.0527E-03
            5595            5698     79.2335E-03     82.8385E-03
            5595            5699     87.3143E-03     90.9213E-03
            5596            5681     85.1295E-03     89.0527E-03
            5596            5682     93.0122E-03     96.8077E-03
            5596            5699     87.3143E-03     90.9213E-03
            5596            5700     95.5521E-03     99.1438E-03
            5597            5682     93.0122E-03     96.8077E-03
            5597            5683     101.169E-03     104.794E-03
            5597            5700     95.5521E-03     99.1438E-03
            5597            5701     104.014E-03     107.623E-03
            5598            5683     101.169E-03     104.794E-03
            5598            5684     109.680E-03     113.137E-03
            5598            5701     104.014E-03     107.623E-03
            5598            5702     113.006E-03     116.568E-03
            5599            5684     109.680E-03     113.137E-03
            5599            5685     119.130E-03     122.396E-03
            5599            5702     113.006E-03     116.568E-03
            5599            5703     122.812E-03     126.387E-03
            5600            5685     119.130E-03     122.396E-03
            5600            5686     129.734E-03     132.994E-03
            5600            5703     122.812E-03     126.387E-03
            5600            5704     134.176E-03     137.570E-03
            5601             994     143.934E-03     147.337E-03
            5601             995     149.426E-03     151.777E-03
            5601            5686     129.734E-03     132.994E-03
            5601            5704     134.176E-03     137.570E-03
            5602             843     19.4994E-03     19.8388E-03
            5602             844     17.2741E-03     17.2108E-03
            5602            5687     14.0396E-03     9.87484E-03
            5602            5705     12.6831E-03     8.80310E-03
            5603            5687     14.0396E-03     9.87484E-03
            5603            5688     7.43369E-03     5.82196E-03
            5603            5705     12.6831E-03     8.80310E-03
            5603            5706     8.51490E-03     6.53411E-03
            5604            5688     7.43369E-03     5.82196E-03
            5604            5689     8.10804E-03     9.78479E-03
            5604            5706     8.51490E-03     6.53411E-03
            5604            5707     10.1115E-03     11.1260E-03
            5605            5689     8.10804E-03     9.78479E-03
            5605            5690     15.2119E-03     18.1513E-03
            5605            5707     10.1115E-03     11.1260E-03
            5605            5708     16.5182E-03     18.9274E-03
            5606            5690     15.2119E-03     18.1513E-03
            5606            5691     23.2387E-03     26.4863E-03
            5606            5708     16.5182E-03     18.9274E-03
            5606            5709     24.1829E-03     26.9759E-03
            5607            5691     23.2387E-03     26.4863E-03
            5607            5692     31.2646E-03     34.6730E-03
            5607            5709     24.1829E-03     26.9759E-03
            5607            5710     32.1709E-03     35.0963E-03
            5608            5692     31.2646E-03     34.6730E-03
            5608            5693     39.2660E-03     42.7687E-03
            5608            5710     32.1709E-03     35.0963E-03
            5608            5711     40.2124E-03     43.2101E-03
            5609            5693     39.2660E-03     42.7687E-03
            5609            5694     47.2578E-03     50.8117E-03
            5609            5711     40.2124E-03     43.2101E-03
            5609            5712     48.3031E-03     51.3429E-03
            5610            5694     47.2578E-03     50.8117E-03
            5610            5695     55.2366E-03     58.8205E-03
            5610            5712     48.3031E-03     51.3429E-03
            5610            5713     56.4188E-03     59.4952E-03
            5611            5695     55.2366E-03     58.8205E-03
            5611            5696     63.2195E-03     66.8191E-03
            5611            5713     56.4188E-03     59.4952E-03
            5611            5714     64.5636E-03     67.6766E-03
            5612            5696     63.2195E-03     66.8191E-03
            5612            5697     71.2073E-03     74.8139E-03
            5612            5714     64.5636E-03     67.6766E-03
            5612            5715     72.7479E-03     75.9022E-03
            5613            5697     71.2073E-03     74.8139E-03
            5613            5698     79.2335E-03     82.8385E-03
            5613            5715     72.7479E-03     75.9022E-03
            5613            5716     80.9838E-03     84.1950E-03
            5614            5698     79.2335E-03     82.8385E-03
            5614            5699     87.3143E-03     90.9213E-03
            5614            5716     80.9838E-03     84.1950E-03
            5614            5717     89.3132E-03     92.5900E-03
            5615            5699     87.3143E-03     90.9213E-03
            5615            5700     95.5521E-03     99.1438E-03
            5615            5717     89.3132E-03     92.5900E-03
            5615            5718     97.7884E-03     101.162E-03
            5616            5700     95.5521E-03     99.1438E-03
            5616            5701     104.014E-03     107.623E-03
            5616            5718     97.7884E-03     101.162E-03
            5616            5719     106.522E-03     109.984E-03
            5617            5701     104.014E-03     107.623E-03
            5617            5702     113.006E-03     116.568E-03
            5617            5719     106.522E-03     109.984E-03
            5617            5720     115.727E-03     119.272E-03
            5618            5702     113.006E-03     116.568E-03
            5618            5703     122.812E-03     126.387E-03
            5618            5720     115.727E-03     119.272E-03
            5618            5721     125.593E-03     129.136E-03
            5619            5703     122.812E-03     126.387E-03
            5619            5704     134.176E-03     137.570E-03
            5619            5721     125.593E-03     129.136E-03
            5619            5722     137.084E-03     140.161E-03
            5620             995     149.426E-03     151.777E-03
            5620             996     149.381E-03     151.966E-03
            5620            5704     134.176E-03     137.570E-03
            5620            5722     137.084E-03     140.161E-03
            5621             844     17.2741E-03     17.2108E-03
            5621             845     16.4926E-03     16.4684E-03
            5621            5705     12.6831E-03     8.80310E-03
            5621            5723     13.0466E-03     9.43121E-03
            5622            5705     12.6831E-03     8.80310E-03
            5622            5706     8.51490E-03     6.53411E-03
            5622            5723     13.0466E-03     9.43121E-03
            5622            5724     10.2382E-03     8.87150E-03
            5623            5706     8.51490E-03     6.53411E-03
            5623            5707     10.1115E-03     11.1260E-03
            5623            5724     10.2382E-03     8.87150E-03
            5623            5725     12.3467E-03     13.3927E-03
            5624            5707     10.1115E-03     11.1260E-03
            5624            5708     16.5182E-03     18.9274E-03
            5624            5725     12.3467E-03     13.3927E-03
            5624            5726     18.2752E-03     20.3299E-03
            5625            5708     16.5182E-03     18.9274E-03
            5625            5709     24.1829E-03     26.9759E-03
            5625            5726     18.2752E-03     20.3299E-03
            5625            5727     25.5778E-03     27.9654E-03
            5626            5709     24.1829E-03     26.9759E-03
            5626            5710     32.1709E-03     35.0963E-03
            5626            5727     25.5778E-03     27.9654E-03
            5626            5728     33.3242E-03     35.8172E-03
            5627            5710     32.1709E-03     35.0963E-03
            5627            5711     40.2124E-03     43.2101E-03
            5627            5728     33.3242E-03     35.8172E-03
            5627            5729     41.3120E-03     43.8306E-03
            5628            5711     40.2124E-03     43.2101E-03
            5628            5712     48.3031E-03     51.3429E-03
            5628            5729     41.3120E-03     43.8306E-03
            5628            5730     49.3881E-03     51.9375E-03
            5629            5712     48.3031E-03     51.3429E-03
            5629            5713     56.4188E-03     59.4952E-03
            5629            5730     49.3881E-03     51.9375E-03
            5629            5731     57.5466E-03     60.1287E-03
            5630            5713     56.4188E-03     59.4952E-03
            5630            5714     64.5636E-03     67.6766E-03
            5630            5731     57.5466E-03     60.1287E-03
            5630            5732     65.7636E-03     68.3931E-03
            5631            5714     64.5636E-03     67.6766E-03
            5631            5715     72.7479E-03     75.9022E-03
            5631            5732     65.7636E-03     68.3931E-03
            5631            5733     74.0473E-03     76.7419E-03
            5632            5715     72.7479E-03     75.9022E-03
            5632            5716     80.9838E-03     84.1950E-03
            5632            5733     74.0473E-03     76.7419E-03
            5632            5734     82.4036E-03     85.1848E-03
            5633            5716     80.9838E-03     84.1950E-03
            5633            5717     89.3132E-03     92.5900E-03
            5633            5734     82.4036E-03     85.1848E-03
            5633            5735     90.8656E-03     93.7635E-03
            5634            5717     89.3132E-03     92.5900E-03
            5634            5718     97.7884E-03     101.162E-03
            5634            5735     90.8656E-03     93.7635E-03
            5634            5736     99.4507E-03     102.498E-03
            5635            5718     97.7884E-03     101.162E-03
            5635            5719     106.522E-03     109.984E-03
            5635            5736     99.4507E-03     102.498E-03
            5635            5737     108.281E-03     111.478E-03
            5636            5719     106.522E-03     109.984E-03
            5636            5720     115.727E-03     119.272E-03
            5636            5737     108.281E-03     111.478E-03
            5636            5738     117.334E-03     120.708E-03
            5637            5720     115.727E-03     119.272E-03
            5637            5721     125.593E-03     129.136E-03
            5637            5738     117.334E-03     120.708E-03
            5637            5739     126.997E-03     130.304E-03
            5638            5721     125.593E-03     129.136E-03
            5638            5722     137.084E-03     140.161E-03
            5638            5739     126.997E-03     130.304E-03
            5638            5740     136.895E-03     140.099E-03
            5639             996     149.381E-03     151.966E-03
            5639             997     146.490E-03     149.535E-03
            5639            5722     137.084E-03     140.161E-03
            5639            5740     136.895E-03     140.099E-03
            5640             845     16.4926E-03     16.4684E-03
            5640             846     16.9498E-03     16.6797E-03
            5640            5723     13.0466E-03     9.43121E-03
            5640            5741     14.3918E-03     11.4820E-03
            5641            5723     13.0466E-03     9.43121E-03
            5641            5724     10.2382E-03     8.87150E-03
            5641            5741     14.3918E-03     11.4820E-03
            5641            5742     12.8744E-03     11.9546E-03
            5642            5724     10.2382E-03     8.87150E-03
            5642            5725     12.3467E-03     13.3927E-03
            5642            5742     12.8744E-03     11.9546E-03
            5642            5743     15.1270E-03     16.0986E-03
            5643            5725     12.3467E-03     13.3927E-03
            5643            5726     18.2752E-03     20.3299E-03
            5643            5743     15.1270E-03     16.0986E-03
            5643            5744     20.3949E-03     22.2456E-03
            5644            5726     18.2752E-03     20.3299E-03
            5644            5727     25.5778E-03     27.9654E-03
            5644            5744     20.3949E-03     22.2456E-03
            5644            5745     27.2065E-03     29.2598E-03
            5645            5727     25.5778E-03     27.9654E-03
            5645            5728     33.3242E-03     35.8172E-03
            5645            5745     27.2065E-03     29.2598E-03
            5645            5746     34.6985E-03     36.7602E-03
            5646            5728     33.3242E-03     35.8172E-03
            5646            5729     41.3120E-03     43.8306E-03
            5646            5746     34.6985E-03     36.7602E-03
            5646            5747     42.4828E-03     44.5435E-03
            5647            5729     41.3120E-03     43.8306E-03
            5647            5730     49.3881E-03     51.9375E-03
            5647            5747     42.4828E-03     44.5435E-03
            5647            5748     50.4579E-03     52.5214E-03
            5648            5730     49.3881E-03     51.9375E-03
            5648            5731     57.5466E-03     60.1287E-03
            5648            5748     50.4579E-03     52.5214E-03
            5648            5749     58.5408E-03     60.6325E-03
            5649            5731     57.5466E-03     60.1287E-03
            5649            5732     65.7636E-03     68.3931E-03
            5649            5749     58.5408E-03     60.6325E-03
            5649            5750     66.7235E-03     68.8602E-03
            5650            5732     65.7636E-03     68.3931E-03
            5650            5733     74.0473E-03     76.7419E-03
            5650            5750     66.7235E-03     68.8602E-03
            5650            5751     74.9861E-03     77.1912E-03
            5651            5733     74.0473E-03     76.7419E-03
            5651            5734     82.4036E-03     85.1848E-03
            5651            5751     74.9861E-03     77.1912E-03
            5651            5752     83.3430E-03     85.6414E-03
            5652            5734     82.4036E-03     85.1848E-03
            5652            5735     90.8656E-03     93.7635E-03
            5652            5752     83.3430E-03     85.6414E-03
            5652            5753     91.7771E-03     94.2096E-03
            5653            5735     90.8656E-03     93.7635E-03
            5653            5736     99.4507E-03     102.498E-03
            5653            5753     91.7771E-03     94.2096E-03
            5653            5754     100.342E-03     102.929E-03
            5654            5736     99.4507E-03     102.498E-03
            5654            5737     108.281E-03     111.478E-03
            5654            5754     100.342E-03     102.929E-03
            5654            5755     108.962E-03     111.779E-03
            5655            5737     108.281E-03     111.478E-03
            5655            5738     117.334E-03     120.708E-03
            5655            5755     108.962E-03     111.779E-03
            5655            5756     117.775E-03     120.737E-03
            5656            5738     117.334E-03     120.708E-03
            5656            5739     126.997E-03     130.304E-03
            5656            5756     117.775E-03     120.737E-03
            5656            5757     126.498E-03     129.668E-03
            5657            5739     126.997E-03     130.304E-03
            5657            5740     136.895E-03     140.099E-03
            5657            5757     126.498E-03     129.668E-03
            5657            5758     134.966E-03     138.154E-03
            5658             997     146.490E-03     149.535E-03
            5658             998     143.041E-03     145.674E-03
            5658            5740     136.895E-03     140.099E-03
            5658            5758     134.966E-03     138.154E-03
            5659             846     16.9498E-03     16.6797E-03
            5659             847     18.1765E-03     18.4873E-03
            5659            5741     14.3918E-03     11.4820E-03
            5659            5759     16.6195E-03     14.5722E-03
            5660            5741     14.3918E-03     11.4820E-03
            5660            5742     12.8744E-03     11.9546E-03
            5660            5759     16.6195E-03     14.5722E-03
            5660            5760     15.7774E-03     15.5107E-03
            5661            5742     12.8744E-03     11.9546E-03
            5661            5743     15.1270E-03     16.0986E-03
            5661            5760     15.7774E-03     15.5107E-03
            5661            5761     18.0084E-03     19.1374E-03
            5662            5743     15.1270E-03     16.0986E-03
            5662            5744     20.3949E-03     22.2456E-03
            5662            5761     18.0084E-03     19.1374E-03
            5662            5762     22.7647E-03     24.4564E-03
            5663            5744     20.3949E-03     22.2456E-03
            5663            5745     27.2065E-03     29.2598E-03
            5663            5762     22.7647E-03     24.4564E-03
            5663            5763     29.1135E-03     30.8162E-03
            5664            5745     27.2065E-03     29.2598E-03
            5664            5746     34.6985E-03     36.7602E-03
            5664            5763     29.1135E-03     30.8162E-03
            5664            5764     36.2411E-03     37.8740E-03
            5665            5746     34.6985E-03     36.7602E-03
            5665            5747     42.4828E-03     44.5435E-03
            5665            5764     36.2411E-03     37.8740E-03
            5665            5765     43.7558E-03     45.3467E-03
            5666            5747     42.4828E-03     44.5435E-03
            5666            5748     50.4579E-03     52.5214E-03
            5666            5765     43.7558E-03     45.3467E-03
            5666            5766     51.4951E-03     53.0788E-03
            5667            5748     50.4579E-03     52.5214E-03
            5667            5749     58.5408E-03     60.6325E-03
            5667            5766     51.4951E-03     53.0788E-03
            5667            5767     59.3938E-03     60.9920E-03
            5668            5749     58.5408E-03     60.6325E-03
            5668            5750     66.7235E-03     68.8602E-03
            5668            5767     59.3938E-03     60.9920E-03
            5668            5768     67.4041E-03     69.0371E-03
            5669            5750     66.7235E-03     68.8602E-03
            5669            5751     74.9861E-03     77.1912E-03
            5669            5768     67.4041E-03     69.0371E-03
            5669            5769     75.5180E-03     77.2009E-03
            5670            5751     74.9861E-03     77.1912E-03
            5670            5752     83.3430E-03     85.6414E-03
            5670            5769     75.5180E-03     77.2009E-03
            5670            5770     83.7056E-03     85.4665E-03
            5671            5752     83.3430E-03     85.6414E-03
            5671            5753     91.7771E-03     94.2096E-03
            5671            5770     83.7056E-03     85.4665E-03
            5671            5771     91.9805E-03     93.8402E-03
            5672            5753     91.7771E-03     94.2096E-03
            5672            5754     100.342E-03     102.929E-03
            5672            5771     91.9805E-03     93.8402E-03
            5672            5772     100.274E-03     102.296E-03
            5673            5754     100.342E-03     102.929E-03
            5673            5755     108.962E-03     111.779E-03
            5673            5772     100.274E-03     102.296E-03
            5673            5773     108.613E-03     110.804E-03
            5674            5755     108.962E-03     111.779E-03
            5674            5756     117.775E-03     120.737E-03
            5674            5773     108.613E-03     110.804E-03
            5674            5774     116.791E-03     119.266E-03
            5675            5756     117.775E-03     120.737E-03
            5675            5757     126.498E-03     129.668E-03
            5675            5774     116.791E-03     119.266E-03
            5675            5775     124.715E-03     127.411E-03
            5676            5757     126.498E-03     129.668E-03
            5676            5758     134.966E-03     138.154E-03
            5676            5775     124.715E-03     127.411E-03
            5676            5776     132.060E-03     134.882E-03
            5677             998     143.041E-03     145.674E-03
            5677             999     138.582E-03     141.344E-03
            5677            5758     134.966E-03     138.154E-03
            5677            5776     132.060E-03     134.882E-03
            5678             847     18.1765E-03     18.4873E-03
            5678             848     20.2133E-03     20.3091E-03
            5678            5759     16.6195E-03     14.5722E-03
            5678            5777     19.2663E-03     18.0099E-03
            5679            5759     16.6195E-03     14.5722E-03
            5679            5760     15.7774E-03     15.5107E-03
            5679            5777     19.2663E-03     18.0099E-03
            5679            5778     18.9213E-03     19.4214E-03
            5680            5760     15.7774E-03     15.5107E-03
            5680            5761     18.0084E-03     19.1374E-03
            5680            5778     18.9213E-03     19.4214E-03
            5680            5779     20.8317E-03     22.4050E-03
            5681            5761     18.0084E-03     19.1374E-03
            5681            5762     22.7647E-03     24.4564E-03
            5681            5779     20.8317E-03     22.4050E-03
            5681            5780     25.3446E-03     26.8416E-03
            5682            5762     22.7647E-03     24.4564E-03
            5682            5763     29.1135E-03     30.8162E-03
            5682            5780     25.3446E-03     26.8416E-03
            5682            5781     31.3332E-03     32.6199E-03
            5683            5763     29.1135E-03     30.8162E-03
            5683            5764     36.2411E-03     37.8740E-03
            5683            5781     31.3332E-03     32.6199E-03
            5683            5782     38.0290E-03     39.2085E-03
            5684            5764     36.2411E-03     37.8740E-03
            5684            5765     43.7558E-03     45.3467E-03
            5684            5782     38.0290E-03     39.2085E-03
            5684            5783     45.1689E-03     46.2920E-03
            5685            5765     43.7558E-03     45.3467E-03
            5685            5766     51.4951E-03     53.0788E-03
            5685            5783     45.1689E-03     46.2920E-03
            5685            5784     52.5673E-03     53.6789E-03
            5686            5766     51.4951E-03     53.0788E-03
            5686            5767     59.3938E-03     60.9920E-03
            5686            5784     52.5673E-03     53.6789E-03
            5686            5785     60.1448E-03     61.2606E-03
            5687            5767     59.3938E-03     60.9920E-03
            5687            5768     67.4041E-03     69.0371E-03
            5687            5785     60.1448E-03     61.2606E-03
            5687            5786     67.8541E-03     68.9808E-03
            5688            5768     67.4041E-03     69.0371E-03
            5688            5769     75.5180E-03     77.2009E-03
            5688            5786     67.8541E-03     68.9808E-03
            5688            5787     75.6527E-03     76.8003E-03
            5689            5769     75.5180E-03     77.2009E-03
            5689            5770     83.7056E-03     85.4665E-03
            5689            5787     75.6527E-03     76.8003E-03
            5689            5788     83.5277E-03     84.6995E-03
            5690            5770     83.7056E-03     85.4665E-03
            5690            5771     91.9805E-03     93.8402E-03
            5690            5788     83.5277E-03     84.6995E-03
            5690            5789     91.4259E-03     92.6508E-03
            5691            5771     91.9805E-03     93.8402E-03
            5691            5772     100.274E-03     102.296E-03
            5691            5789     91.4259E-03     92.6508E-03
            5691            5790     99.3293E-03     100.623E-03
            5692            5772     100.274E-03     102.296E-03
            5692            5773     108.613E-03     110.804E-03
            5692            5790     99.3293E-03     100.623E-03
            5692            5791     107.118E-03     108.551E-03
            5693            5773     108.613E-03     110.804E-03
            5693            5774     116.791E-03     119.266E-03
            5693            5791     107.118E-03     108.551E-03
            5693            5792     114.683E-03     116.307E-03
            5694            5774     116.791E-03     119.266E-03
            5694            5775     124.715E-03     127.411E-03
            5694            5792     114.683E-03     116.307E-03
            5694            5793     121.779E-03     123.686E-03
            5695            5775     124.715E-03     127.411E-03
            5695            5776     132.060E-03     134.882E-03
            5695            5793     121.779E-03     123.686E-03
            5695            5794     128.157E-03     130.346E-03
            5696             999     138.582E-03     141.344E-03
            5696            1000     133.620E-03     135.842E-03
            5696            5776     132.060E-03     134.882E-03
            5696            5794     128.157E-03     130.346E-03
            5697             848     20.2133E-03     20.3091E-03
            5697             849     23.1400E-03     24.3488E-03
            5697            5777     19.2663E-03     18.0099E-03
            5697            5795     22.1233E-03     22.5243E-03
            5698            5777     19.2663E-03     18.0099E-03
            5698            5778     18.9213E-03     19.4214E-03
            5698            5795     22.1233E-03     22.5243E-03
            5698            5796     21.3372E-03     23.4902E-03
            5699            5778     18.9213E-03     19.4214E-03
            5699            5779     20.8317E-03     22.4050E-03
            5699            5796     21.3372E-03     23.4902E-03
            5699            5797     23.8197E-03     25.5050E-03
            5700            5779     20.8317E-03     22.4050E-03
            5700            5780     25.3446E-03     26.8416E-03
            5700            5797     23.8197E-03     25.5050E-03
            5700            5798     28.3737E-03     29.4392E-03
            5701            5780     25.3446E-03     26.8416E-03
            5701            5781     31.3332E-03     32.6199E-03
            5701            5798     28.3737E-03     29.4392E-03
            5701            5799     33.9194E-03     34.7428E-03
            5702            5781     31.3332E-03     32.6199E-03
            5702            5782     38.0290E-03     39.2085E-03
            5702            5799     33.9194E-03     34.7428E-03
            5702            5800     40.1681E-03     40.8802E-03
            5703            5782     38.0290E-03     39.2085E-03
            5703            5783     45.1689E-03     46.2920E-03
            5703            5800     40.1681E-03     40.8802E-03
            5703            5801     46.8278E-03     47.5134E-03
            5704            5783     45.1689E-03     46.2920E-03
            5704            5784     52.5673E-03     53.6789E-03
            5704            5801     46.8278E-03     47.5134E-03
            5704            5802     53.7797E-03     54.4535E-03
            5705            5784     52.5673E-03     53.6789E-03
            5705            5785     60.1448E-03     61.2606E-03
            5705            5802     53.7797E-03     54.4535E-03
            5705            5803     60.9194E-03     61.5832E-03
            5706            5785     60.1448E-03     61.2606E-03
            5706            5786     67.8541E-03     68.9808E-03
            5706            5803     60.9194E-03     61.5832E-03
            5706            5804     68.1819E-03     68.8310E-03
            5707            5786     67.8541E-03     68.9808E-03
            5707            5787     75.6527E-03     76.8003E-03
            5707            5804     68.1819E-03     68.8310E-03
            5707            5805     75.5267E-03     76.1453E-03
            5708            5787     75.6527E-03     76.8003E-03
            5708            5788     83.5277E-03     84.6995E-03
            5708            5805     75.5267E-03     76.1453E-03
            5708            5806     82.9005E-03     83.4872E-03
            5709            5788     83.5277E-03     84.6995E-03
            5709            5789     91.4259E-03     92.6508E-03
            5709            5806     82.9005E-03     83.4872E-03
            5709            5807     90.2700E-03     90.8087E-03
            5710            5789     91.4259E-03     92.6508E-03
            5710            5790     99.3293E-03     100.623E-03
            5710            5807     90.2700E-03     90.8087E-03
            5710            5808     97.5611E-03     98.0641E-03
            5711            5790     99.3293E-03     100.623E-03
            5711            5791     107.118E-03     108.551E-03
            5711            5808     97.5611E-03     98.0641E-03
            5711            5809     104.681E-03     105.165E-03
            5712            5791     107.118E-03     108.551E-03
            5712            5792     114.683E-03     116.307E-03
            5712            5809     104.681E-03     105.165E-03
            5712            5810     111.509E-03     112.007E-03
            5713            5792     114.683E-03     116.307E-03
            5713            5793     121.779E-03     123.686E-03
            5713            5810     111.509E-03     112.007E-03
            5713            5811     117.787E-03     118.433E-03
            5714            5793     121.779E-03     123.686E-03
            5714            5794     128.157E-03     130.346E-03
            5714            5811     117.787E-03     118.433E-03
            5714            5812     123.311E-03     124.181E-03
            5715            1000     133.620E-03     135.842E-03
            5715            1001     127.779E-03     128.890E-03
            5715            5794     128.157E-03     130.346E-03
            5715            5812     123.311E-03     124.181E-03
            5716             849     23.1400E-03     24.3488E-03
            5716             850     24.5851E-03     29.4546E-03
            5716            5795     22.1233E-03     22.5243E-03
            5716            5813     22.7027E-03     27.0567E-03
            5717            5795     22.1233E-03     22.5243E-03
            5717            5796     21.3372E-03     23.4902E-03
            5717            5813     22.7027E-03     27.0567E-03
            5717            5814     24.1903E-03     26.5480E-03
            5718            5796     21.3372E-03     23.4902E-03
            5718            5797     23.8197E-03     25.5050E-03
            5718            5814     24.1903E-03     26.5480E-03
            5718            5815     27.6323E-03     28.5282E-03
            5719            5797     23.8197E-03     25.5050E-03
            5719            5798     28.3737E-03     29.4392E-03
            5719            5815     27.6323E-03     28.5282E-03
            5719            5816     31.9415E-03     32.3823E-03
            5720            5798     28.3737E-03     29.4392E-03
            5720            5799     33.9194E-03     34.7428E-03
            5720            5816     31.9415E-03     32.3823E-03
            5720            5817     37.0437E-03     37.3764E-03
            5721            5799     33.9194E-03     34.7428E-03
            5721            5800     40.1681E-03     40.8802E-03
            5721            5817     37.0437E-03     37.3764E-03
            5721            5818     42.7468E-03     43.0586E-03
            5722            5800     40.1681E-03     40.8802E-03
            5722            5801     46.8278E-03     47.5134E-03
            5722            5818     42.7468E-03     43.0586E-03
            5722            5819     48.8765E-03     49.1932E-03
            5723            5801     46.8278E-03     47.5134E-03
            5723            5802     53.7797E-03     54.4535E-03
            5723            5819     48.8765E-03     49.1932E-03
            5723            5820     55.2943E-03     55.5981E-03
            5724            5802     53.7797E-03     54.4535E-03
            5724            5803     60.9194E-03     61.5832E-03
            5724            5820     55.2943E-03     55.5981E-03
            5724            5821     61.8950E-03     62.1719E-03
            5725            5803     60.9194E-03     61.5832E-03
            5725            5804     68.1819E-03     68.8310E-03
            5725            5821     61.8950E-03     62.1719E-03
            5725            5822     68.6050E-03     68.8274E-03
            5726            5804     68.1819E-03     68.8310E-03
            5726            5805     75.5267E-03     76.1453E-03
            5726            5822     68.6050E-03     68.8274E-03
            5726            5823     75.3526E-03     75.5043E-03
            5727            5805     75.5267E-03     76.1453E-03
            5727            5806     82.9005E-03     83.4872E-03
            5727            5823     75.3526E-03     75.5043E-03
            5727            5824     82.0895E-03     82.1299E-03
            5728            5806     82.9005E-03     83.4872E-03
            5728            5807     90.2700E-03     90.8087E-03
            5728            5824     82.0895E-03     82.1299E-03
            5728            5825     88.7485E-03     88.6541E-03
            5729            5807     90.2700E-03     90.8087E-03
            5729            5808     97.5611E-03     98.0641E-03
            5729            5825     88.7485E-03     88.6541E-03
            5729            5826     95.2601E-03     94.9757E-03
            5730            5808     97.5611E-03     98.0641E-03
            5730            5809     104.681E-03     105.165E-03
            5730            5826     95.2601E-03     94.9757E-03
            5730            5827     101.550E-03     101.033E-03
            5731            5809     104.681E-03     105.165E-03
            5731            5810     111.509E-03     112.007E-03
            5731            5827     101.550E-03     101.033E-03
            5731            5828     107.457E-03     106.679E-03
            5732            5810     111.509E-03     112.007E-03
            5732            5811     117.787E-03     118.433E-03
            5732            5828     107.457E-03     106.679E-03
            5732            5829     112.905E-03     111.815E-03
            5733            5811     117.787E-03     118.433E-03
            5733            5812     123.311E-03     124.181E-03
            5733            5829     112.905E-03     111.815E-03
            5733            5830     117.533E-03     116.241E-03
            5734            1001     127.779E-03     128.890E-03
            5734            1002     121.156E-03     119.815E-03
            5734            5812     123.311E-03     124.181E-03
            5734            5830     117.533E-03     116.241E-03
            5735             850     24.5851E-03     29.4546E-03
            5735             851     21.7367E-03     25.0521E-03
            5735            5813     22.7027E-03     27.0567E-03
            5735            5831     16.6106E-03     19.4706E-03
            5736            5813     22.7027E-03     27.0567E-03
            5736            5814     24.1903E-03     26.5480E-03
            5736            5831     16.6106E-03     19.4706E-03
            5736            5832     15.3376E-03     15.9937E-03
            5737            5814     24.1903E-03     26.5480E-03
            5737            5815     27.6323E-03     28.5282E-03
            5737            5832     15.3376E-03     15.9937E-03
            5737            5833     17.3225E-03     18.6487E-03
            5738            5815     27.6323E-03     28.5282E-03
            5738            5816     31.9415E-03     32.3823E-03
            5738            5833     17.3225E-03     18.6487E-03
            5738            5834     21.8819E-03     23.5942E-03
            5739            5816     31.9415E-03     32.3823E-03
            5739            5817     37.0437E-03     37.3764E-03
            5739            5834     21.8819E-03     23.5942E-03
            5739            5835     26.9890E-03     28.8595E-03
            5740            5817     37.0437E-03     37.3764E-03
            5740            5818     42.7468E-03     43.0586E-03
            5740            5835     26.9890E-03     28.8595E-03
            5740            5836     32.4014E-03     34.3714E-03
            5741            5818     42.7468E-03     43.0586E-03
            5741            5819     48.8765E-03     49.1932E-03
            5741            5836     32.4014E-03     34.3714E-03
            5741            5837     37.9880E-03     40.0134E-03
            5742            5819     48.8765E-03     49.1932E-03
            5742            5820     55.2943E-03     55.5981E-03
            5742            5837     37.9880E-03     40.0134E-03
            5742            5838     43.7165E-03     45.7484E-03
            5743            5820     55.2943E-03     55.5981E-03
            5743            5821     61.8950E-03     62.1719E-03
            5743            5838     43.7165E-03     45.7484E-03
            5743            5839     49.5092E-03     51.5310E-03
            5744            5821     61.8950E-03     62.1719E-03
            5744            5822     68.6050E-03     68.8274E-03
            5744            5839     49.5092E-03     51.5310E-03
            5744            5840     55.3521E-03     57.3237E-03
            5745            5822     68.6050E-03     68.8274E-03
            5745            5823     75.3526E-03     75.5043E-03
            5745            5840     55.3521E-03     57.3237E-03
            5745            5841     61.1889E-03     63.1035E-03
            5746            5823     75.3526E-03     75.5043E-03
            5746            5824     82.0895E-03     82.1299E-03
            5746            5841     61.1889E-03     63.1035E-03
            5746            5842     67.0297E-03     68.8311E-03
            5747            5824     82.0895E-03     82.1299E-03
            5747            5825     88.7485E-03     88.6541E-03
            5747            5842     67.0297E-03     68.8311E-03
            5747            5843     72.8185E-03     74.4957E-03
            5748            5825     88.7485E-03     88.6541E-03
            5748            5826     95.2601E-03     94.9757E-03
            5748            5843     72.8185E-03     74.4957E-03
            5748            5844     78.6139E-03     80.0701E-03
            5749            5826     95.2601E-03     94.9757E-03
            5749            5827     101.550E-03     101.033E-03
            5749            5844     78.6139E-03     80.0701E-03
            5749            5845     84.3393E-03     85.5724E-03
            5750            5827     101.550E-03     101.033E-03
            5750            5828     107.457E-03     106.679E-03
            5750            5845     84.3393E-03     85.5724E-03
            5750            5846     90.1700E-03     91.0326E-03
            5751            5828     107.457E-03     106.679E-03
            5751            5829     112.905E-03     111.815E-03
            5751            5846     90.1700E-03     91.0326E-03
            5751            5847     95.9958E-03     96.5818E-03
            5752            5829     112.905E-03     111.815E-03
            5752            5830     117.533E-03     116.241E-03
            5752            5847     95.9958E-03     96.5818E-03
            5752            5848     102.315E-03     102.535E-03
            5753            1002     121.156E-03     119.815E-03
            5753            1003     109.035E-03     109.369E-03
            5753            5830     117.533E-03     116.241E-03
            5753            5848     102.315E-03     102.535E-03
            5754             851     21.7367E-03     25.0521E-03
            5754             852     16.9889E-03     17.1903E-03
            5754            5831     16.6106E-03     19.4706E-03
            5754            5849     11.8136E-03     9.44922E-03
            5755            5831     16.6106E-03     19.4706E-03
            5755            5832     15.3376E-03     15.9937E-03
            5755            5849     11.8136E-03     9.44922E-03
            5755            5850     6.26674E-03     5.45358E-03
            5756            5832     15.3376E-03     15.9937E-03
            5756            5833     17.3225E-03     18.6487E-03
            5756            5850     6.26674E-03     5.45358E-03
            5756            5851     6.22187E-03     7.92896E-03
            5757            5833     17.3225E-03     18.6487E-03
            5757            5834     21.8819E-03     23.5942E-03
            5757            5851     6.22187E-03     7.92896E-03
            5757            5852     10.6591E-03     13.5064E-03
            5758            5834     21.8819E-03     23.5942E-03
            5758            5835     26.9890E-03     28.8595E-03
            5758            5852     10.6591E-03     13.5064E-03
            5758            5853     15.8782E-03     19.1308E-03
            5759            5835     26.9890E-03     28.8595E-03
            5759            5836     32.4014E-03     34.3714E-03
            5759            5853     15.8782E-03     19.1308E-03
            5759            5854     21.1896E-03     24.6436E-03
            5760            5836     32.4014E-03     34.3714E-03
            5760            5837     37.9880E-03     40.0134E-03
            5760            5854     21.1896E-03     24.6436E-03
            5760            5855     26.5297E-03     30.0843E-03
            5761            5837     37.9880E-03     40.0134E-03
            5761            5838     43.7165E-03     45.7484E-03
            5761            5855     26.5297E-03     30.0843E-03
            5761            5856     31.8546E-03     35.4617E-03
            5762            5838     43.7165E-03     45.7484E-03
            5762            5839     49.5092E-03     51.5310E-03
            5762            5856     31.8546E-03     35.4617E-03
            5762            5857     37.1799E-03     40.8079E-03
            5763            5839     49.5092E-03     51.5310E-03
            5763            5840     55.3521E-03     57.3237E-03
            5763            5857     37.1799E-03     40.8079E-03
            5763            5858     42.4969E-03     46.1224E-03
            5764            5840     55.3521E-03     57.3237E-03
            5764            5841     61.1889E-03     63.1035E-03
            5764            5858     42.4969E-03     46.1224E-03
            5764            5859     47.8242E-03     51.4320E-03
            5765            5841     61.1889E-03     63.1035E-03
            5765            5842     67.0297E-03     68.8311E-03
            5765            5859     47.8242E-03     51.4320E-03
            5765            5860     53.1696E-03     56.7375E-03
            5766            5842     67.0297E-03     68.8311E-03
            5766            5843     72.8185E-03     74.4957E-03
            5766            5860     53.1696E-03     56.7375E-03
            5766            5861     58.5874E-03     62.0965E-03
            5767            5843     72.8185E-03     74.4957E-03
            5767            5844     78.6139E-03     80.0701E-03
            5767            5861     58.5874E-03     62.0965E-03
            5767            5862     64.1155E-03     67.5405E-03
            5768            5844     78.6139E-03     80.0701E-03
            5768            5845     84.3393E-03     85.5724E-03
            5768            5862     64.1155E-03     67.5405E-03
            5768            5863     69.9230E-03     73.2373E-03
            5769            5845     84.3393E-03     85.5724E-03
            5769            5846     90.1700E-03     91.0326E-03
            5769            5863     69.9230E-03     73.2373E-03
            5769            5864     76.1131E-03     79.3204E-03
            5770            5846     90.1700E-03     91.0326E-03
            5770            5847     95.9958E-03     96.5818E-03
            5770            5864     76.1131E-03     79.3204E-03
            5770            5865     83.2186E-03     86.3102E-03
            5771            5847     95.9958E-03     96.5818E-03
            5771            5848     102.315E-03     102.535E-03
            5771            5865     83.2186E-03     86.3102E-03
            5771            5866     91.5048E-03     94.6244E-03
            5772            1003     109.035E-03     109.369E-03
            5772            1004     103.186E-03     106.442E-03
            5772            5848     102.315E-03     102.535E-03
            5772            5866     91.5048E-03     94.6244E-03
            5773             852     16.9889E-03     17.1903E-03
            5773             853     14.1183E-03     14.0781E-03
            5773            5849     11.8136E-03     9.44922E-03
            5773            5867     11.5228E-03     8.42473E-03
            5774            5849     11.8136E-03     9.44922E-03
            5774            5850     6.26674E-03     5.45358E-03
            5774            5867     11.5228E-03     8.42473E-03
            5774            5868     8.56814E-03     6.94494E-03
            5775            5850     6.26674E-03     5.45358E-03
            5775            5851     6.22187E-03     7.92896E-03
            5775            5868     8.56814E-03     6.94494E-03
            5775            5869     8.85064E-03     9.48863E-03
            5776            5851     6.22187E-03     7.92896E-03
            5776            5852     10.6591E-03     13.5064E-03
            5776            5869     8.85064E-03     9.48863E-03
            5776            5870     12.3970E-03     14.4068E-03
            5777            5852     10.6591E-03     13.5064E-03
            5777            5853     15.8782E-03     19.1308E-03
            5777            5870     12.3970E-03     14.4068E-03
            5777            5871     17.2655E-03     19.7959E-03
            5778            5853     15.8782E-03     19.1308E-03
            5778            5854     21.1896E-03     24.6436E-03
            5778            5871     17.2655E-03     19.7959E-03
            5778            5872     22.4254E-03     25.2080E-03
            5779            5854     21.1896E-03     24.6436E-03
            5779            5855     26.5297E-03     30.0843E-03
            5779            5872     22.4254E-03     25.2080E-03
            5779            5873     27.7143E-03     30.6280E-03
            5780            5855     26.5297E-03     30.0843E-03
            5780            5856     31.8546E-03     35.4617E-03
            5780            5873     27.7143E-03     30.6280E-03
            5780            5874     33.0608E-03     36.0461E-03
            5781            5856     31.8546E-03     35.4617E-03
            5781            5857     37.1799E-03     40.8079E-03
            5781            5874     33.0608E-03     36.0461E-03
            5781            5875     38.4398E-03     41.4660E-03
            5782            5857     37.1799E-03     40.8079E-03
            5782            5858     42.4969E-03     46.1224E-03
            5782            5875     38.4398E-03     41.4660E-03
            5782            5876     43.8491E-03     46.8990E-03
            5783            5858     42.4969E-03     46.1224E-03
            5783            5859     47.8242E-03     51.4320E-03
            5783            5876     43.8491E-03     46.8990E-03
            5783            5877     49.2817E-03     52.3461E-03
            5784            5859     47.8242E-03     51.4320E-03
            5784            5860     53.1696E-03     56.7375E-03
            5784            5877     49.2817E-03     52.3461E-03
            5784            5878     54.7638E-03     57.8338E-03
            5785            5860     53.1696E-03     56.7375E-03
            5785            5861     58.5874E-03     62.0965E-03
            5785            5878     54.7638E-03     57.8338E-03
            5785            5879     60.3078E-03     63.3870E-03
            5786            5861     58.5874E-03     62.0965E-03
            5786            5862     64.1155E-03     67.5405E-03
            5786            5879     60.3078E-03     63.3870E-03
            5786            5880     66.0086E-03     69.0795E-03
            5787            5862     64.1155E-03     67.5405E-03
            5787            5863     69.9230E-03     73.2373E-03
            5787            5880     66.0086E-03     69.0795E-03
            5787            5881     71.9356E-03     75.0203E-03
            5788            5863     69.9230E-03     73.2373E-03
            5788            5864     76.1131E-03     79.3204E-03
            5788            5881     71.9356E-03     75.0203E-03
            5788            5882     78.3751E-03     81.4121E-03
            5789            5864     76.1131E-03     79.3204E-03
            5789            5865     83.2186E-03     86.3102E-03
            5789            5882     78.3751E-03     81.4121E-03
            5789            5883     85.6128E-03     88.6306E-03
            5790            5865     83.2186E-03     86.3102E-03
            5790            5866     91.5048E-03     94.6244E-03
            5790            5883     85.6128E-03     88.6306E-03
            5790            5884     94.3605E-03     97.1688E-03
            5791            1004     103.186E-03     106.442E-03
            5791            1005     106.741E-03     108.590E-03
            5791            5866     91.5048E-03     94.6244E-03
            5791            5884     94.3605E-03     97.1688E-03
            5792             853     14.1183E-03     14.0781E-03
            5792             854     13.0500E-03     12.7837E-03
            5792            5867     11.5228E-03     8.42473E-03
            5792            5885     11.1232E-03     8.46824E-03
            5793            5867     11.5228E-03     8.42473E-03
            5793            5868     8.56814E-03     6.94494E-03
            5793            5885     11.1232E-03     8.46824E-03
            5793            5886     9.69542E-03     8.23504E-03
            5794            5868     8.56814E-03     6.94494E-03
            5794            5869     8.85064E-03     9.48863E-03
            5794            5886     9.69542E-03     8.23504E-03
            5794            5887     10.9609E-03     11.1997E-03
            5795            5869     8.85064E-03     9.48863E-03
            5795            5870     12.3970E-03     14.4068E-03
            5795            5887     10.9609E-03     11.1997E-03
            5795            5888     14.3335E-03     15.7374E-03
            5796            5870     12.3970E-03     14.4068E-03
            5796            5871     17.2655E-03     19.7959E-03
            5796            5888     14.3335E-03     15.7374E-03
            5796            5889     18.8080E-03     20.7571E-03
            5797            5871     17.2655E-03     19.7959E-03
            5797            5872     22.4254E-03     25.2080E-03
            5797            5889     18.8080E-03     20.7571E-03
            5797            5890     23.7982E-03     25.9952E-03
            5798            5872     22.4254E-03     25.2080E-03
            5798            5873     27.7143E-03     30.6280E-03
            5798            5890     23.7982E-03     25.9952E-03
            5798            5891     28.9853E-03     31.3154E-03
            5799            5873     27.7143E-03     30.6280E-03
            5799            5874     33.0608E-03     36.0461E-03
            5799            5891     28.9853E-03     31.3154E-03
            5799            5892     34.3071E-03     36.7105E-03
            5800            5874     33.0608E-03     36.0461E-03
            5800            5875     38.4398E-03     41.4660E-03
            5800            5892     34.3071E-03     36.7105E-03
            5800            5893     39.7064E-03     42.1610E-03
            5801            5875     38.4398E-03     41.4660E-03
            5801            5876     43.8491E-03     46.8990E-03
            5801            5893     39.7064E-03     42.1610E-03
            5801            5894     45.1663E-03     47.6631E-03
            5802            5876     43.8491E-03     46.8990E-03
            5802            5877     49.2817E-03     52.3461E-03
            5802            5894     45.1663E-03     47.6631E-03
            5802            5895     50.6847E-03     53.2206E-03
            5803            5877     49.2817E-03     52.3461E-03
            5803            5878     54.7638E-03     57.8338E-03
            5803            5895     50.6847E-03     53.2206E-03
            5803            5896     56.2603E-03     58.8461E-03
            5804            5878     54.7638E-03     57.8338E-03
            5804            5879     60.3078E-03     63.3870E-03
            5804            5896     56.2603E-03     58.8461E-03
            5804            5897     61.9296E-03     64.5646E-03
            5805            5879     60.3078E-03     63.3870E-03
            5805            5880     66.0086E-03     69.0795E-03
            5805            5897     61.9296E-03     64.5646E-03
            5805            5898     67.7284E-03     70.4375E-03
            5806            5880     66.0086E-03     69.0795E-03
            5806            5881     71.9356E-03     75.0203E-03
            5806            5898     67.7284E-03     70.4375E-03
            5806            5899     73.7678E-03     76.5281E-03
            5807            5881     71.9356E-03     75.0203E-03
            5807            5882     78.3751E-03     81.4121E-03
            5807            5899     73.7678E-03     76.5281E-03
            5807            5900     80.2337E-03     83.0351E-03
            5808            5882     78.3751E-03     81.4121E-03
            5808            5883     85.6128E-03     88.6306E-03
            5808            5900     80.2337E-03     83.0351E-03
            5808            5901     87.3337E-03     90.0818E-03
            5809            5883     85.6128E-03     88.6306E-03
            5809            5884     94.3605E-03     97.1688E-03
            5809            5901     87.3337E-03     90.0818E-03
            5809            5902     95.9616E-03     98.2540E-03
            5810            1005     106.741E-03     108.590E-03
            5810            1006     105.511E-03     107.367E-03
            5810            5884     94.3605E-03     97.1688E-03
            5810            5902     95.9616E-03     98.2540E-03
            5811             854     13.0500E-03     12.7837E-03
            5811             855     13.0156E-03     12.7505E-03
            5811            5885     11.1232E-03     8.46824E-03
            5811            5903     11.9553E-03     9.58135E-03
            5812            5885     11.1232E-03     8.46824E-03
            5812            5886     9.69542E-03     8.23504E-03
            5812            5903     11.9553E-03     9.58135E-03
            5812            5904     11.3335E-03     10.2374E-03
            5813            5886     9.69542E-03     8.23504E-03
            5813            5887     10.9609E-03     11.1997E-03
            5813            5904     11.3335E-03     10.2374E-03
            5813            5905     12.8923E-03     13.1295E-03
            5814            5887     10.9609E-03     11.1997E-03
            5814            5888     14.3335E-03     15.7374E-03
            5814            5905     12.8923E-03     13.1295E-03
            5814            5906     16.1965E-03     17.2585E-03
            5815            5888     14.3335E-03     15.7374E-03
            5815            5889     18.8080E-03     20.7571E-03
            5815            5906     16.1965E-03     17.2585E-03
            5815            5907     20.4384E-03     21.9383E-03
            5816            5889     18.8080E-03     20.7571E-03
            5816            5890     23.7982E-03     25.9952E-03
            5816            5907     20.4384E-03     21.9383E-03
            5816            5908     25.1919E-03     26.8970E-03
            5817            5890     23.7982E-03     25.9952E-03
            5817            5891     28.9853E-03     31.3154E-03
            5817            5908     25.1919E-03     26.8970E-03
            5817            5909     30.2680E-03     32.0646E-03
            5818            5891     28.9853E-03     31.3154E-03
            5818            5892     34.3071E-03     36.7105E-03
            5818            5909     30.2680E-03     32.0646E-03
            5818            5910     35.5131E-03     37.3714E-03
            5819            5892     34.3071E-03     36.7105E-03
            5819            5893     39.7064E-03     42.1610E-03
            5819            5910     35.5131E-03     37.3714E-03
            5819            5911     40.8878E-03     42.7935E-03
            5820            5893     39.7064E-03     42.1610E-03
            5820            5894     45.1663E-03     47.6631E-03
            5820            5911     40.8878E-03     42.7935E-03
            5820            5912     46.3547E-03     48.3079E-03
            5821            5894     45.1663E-03     47.6631E-03
            5821            5895     50.6847E-03     53.2206E-03
            5821            5912     46.3547E-03     48.3079E-03
            5821            5913     51.9025E-03     53.9124E-03
            5822            5895     50.6847E-03     53.2206E-03
            5822            5896     56.2603E-03     58.8461E-03
            5822            5913     51.9025E-03     53.9124E-03
            5822            5914     57.5297E-03     59.6053E-03
            5823            5896     56.2603E-03     58.8461E-03
            5823            5897     61.9296E-03     64.5646E-03
            5823            5914     57.5297E-03     59.6053E-03
            5823            5915     63.2471E-03     65.4119E-03
            5824            5897     61.9296E-03     64.5646E-03
            5824            5898     67.7284E-03     70.4375E-03
            5824            5915     63.2471E-03     65.4119E-03
            5824            5916     69.0715E-03     71.3394E-03
            5825            5898     67.7284E-03     70.4375E-03
            5825            5899     73.7678E-03     76.5281E-03
            5825            5916     69.0715E-03     71.3394E-03
            5825            5917     75.0825E-03     77.4575E-03
            5826            5899     73.7678E-03     76.5281E-03
            5826            5900     80.2337E-03     83.0351E-03
            5826            5917     75.0825E-03     77.4575E-03
            5826            5918     81.2786E-03     83.7638E-03
            5827            5900     80.2337E-03     83.0351E-03
            5827            5901     87.3337E-03     90.0818E-03
            5827            5918     81.2786E-03     83.7638E-03
            5827            5919     87.9990E-03     90.3972E-03
            5828            5901     87.3337E-03     90.0818E-03
            5828            5902     95.9616E-03     98.2540E-03
            5828            5919     87.9990E-03     90.3972E-03
            5828            5920     94.9854E-03     97.2841E-03
            5829            1006     105.511E-03     107.367E-03
            5829            1007     101.960E-03     104.114E-03
            5829            5902     95.9616E-03     98.2540E-03
            5829            5920     94.9854E-03     97.2841E-03
            5830             855     13.0156E-03     12.7505E-03
            5830             856     13.8080E-03     13.3272E-03
            5830            5903     11.9553E-03     9.58135E-03
            5830            5921     13.3121E-03     11.3822E-03
            5831            5903     11.9553E-03     9.58135E-03
            5831            5904     11.3335E-03     10.2374E-03
            5831            5921     13.3121E-03     11.3822E-03
            5831            5922     13.3636E-03     12.5996E-03
            5832            5904     11.3335E-03     10.2374E-03
            5832            5905     12.8923E-03     13.1295E-03
            5832            5922     13.3636E-03     12.5996E-03
            5832            5923     15.0447E-03     15.3140E-03
            5833            5905     12.8923E-03     13.1295E-03
            5833            5906     16.1965E-03     17.2585E-03
            5833            5923     15.0447E-03     15.3140E-03
            5833            5924     18.0814E-03     18.9841E-03
            5834            5906     16.1965E-03     17.2585E-03
            5834            5907     20.4384E-03     21.9383E-03
            5834            5924     18.0814E-03     18.9841E-03
            5834            5925     22.0614E-03     23.2345E-03
            5835            5907     20.4384E-03     21.9383E-03
            5835            5908     25.1919E-03     26.8970E-03
            5835            5925     22.0614E-03     23.2345E-03
            5835            5926     26.6191E-03     27.8799E-03
            5836            5908     25.1919E-03     26.8970E-03
            5836            5909     30.2680E-03     32.0646E-03
            5836            5926     26.6191E-03     27.8799E-03
            5836            5927     31.5178E-03     32.8232E-03
            5837            5909     30.2680E-03     32.0646E-03
            5837            5910     35.5131E-03     37.3714E-03
            5837            5927     31.5178E-03     32.8232E-03
            5837            5928     36.6497E-03     37.9851E-03
            5838            5910     35.5131E-03     37.3714E-03
            5838            5911     40.8878E-03     42.7935E-03
            5838            5928     36.6497E-03     37.9851E-03
            5838            5929     41.9347E-03     43.3053E-03
            5839            5911     40.8878E-03     42.7935E-03
            5839            5912     46.3547E-03     48.3079E-03
            5839            5929     41.9347E-03     43.3053E-03
            5839            5930     47.3436E-03     48.7568E-03
            5840            5912     46.3547E-03     48.3079E-03
            5840            5913     51.9025E-03     53.9124E-03
            5840            5930     47.3436E-03     48.7568E-03
            5840            5931     52.8488E-03     54.3156E-03
            5841            5913     51.9025E-03     53.9124E-03
            5841            5914     57.5297E-03     59.6053E-03
            5841            5931     52.8488E-03     54.3156E-03
            5841            5932     58.4450E-03     59.9826E-03
            5842            5914     57.5297E-03     59.6053E-03
            5842            5915     63.2471E-03     65.4119E-03
            5842            5932     58.4450E-03     59.9826E-03
            5842            5933     64.1106E-03     65.7432E-03
            5843            5915     63.2471E-03     65.4119E-03
            5843            5916     69.0715E-03     71.3394E-03
            5843            5933     64.1106E-03     65.7432E-03
            5843            5934     69.8634E-03     71.6099E-03
            5844            5916     69.0715E-03     71.3394E-03
            5844            5917     75.0825E-03     77.4575E-03
            5844            5934     69.8634E-03     71.6099E-03
            5844            5935     75.6332E-03     77.5433E-03
            5845            5917     75.0825E-03     77.4575E-03
            5845            5918     81.2786E-03     83.7638E-03
            5845            5935     75.6332E-03     77.5433E-03
            5845            5936     81.4871E-03     83.5120E-03
            5846            5918     81.2786E-03     83.7638E-03
            5846            5919     87.9990E-03     90.3972E-03
            5846            5936     81.4871E-03     83.5120E-03
            5846            5937     87.1989E-03     89.3895E-03
            5847            5919     87.9990E-03     90.3972E-03
            5847            5920     94.9854E-03     97.2841E-03
            5847            5937     87.1989E-03     89.3895E-03
            5847            5938     92.6988E-03     94.9072E-03
            5848            1007     101.960E-03     104.114E-03
            5848            1008     98.0372E-03     99.8501E-03
            5848            5920     94.9854E-03     97.2841E-03
            5848            5938     92.6988E-03     94.9072E-03
            5849             856     13.8080E-03     13.3272E-03
            5849             857     14.9926E-03     14.9560E-03
            5849            5921     13.3121E-03     11.3822E-03
            5849            5939     15.1054E-03     13.7778E-03
            5850            5921     13.3121E-03     11.3822E-03
            5850            5922     13.3636E-03     12.5996E-03
            5850            5939     15.1054E-03     13.7778E-03
            5850            5940     15.5265E-03     15.1813E-03
            5851            5922     13.3636E-03     12.5996E-03
            5851            5923     15.0447E-03     15.3140E-03
            5851            5940     15.5265E-03     15.1813E-03
            5851            5941     17.2148E-03     17.6778E-03
            5852            5923     15.0447E-03     15.3140E-03
            5852            5924     18.0814E-03     18.9841E-03
            5852            5941     17.2148E-03     17.6778E-03
            5852            5942     20.0142E-03     20.8629E-03
            5853            5924     18.0814E-03     18.9841E-03
            5853            5925     22.0614E-03     23.2345E-03
            5853            5942     20.0142E-03     20.8629E-03
            5853            5943     23.7452E-03     24.6221E-03
            5854            5925     22.0614E-03     23.2345E-03
            5854            5926     26.6191E-03     27.8799E-03
            5854            5943     23.7452E-03     24.6221E-03
            5854            5944     28.0770E-03     28.9232E-03
            5855            5926     26.6191E-03     27.8799E-03
            5855            5927     31.5178E-03     32.8232E-03
            5855            5944     28.0770E-03     28.9232E-03
            5855            5945     32.7719E-03     33.6013E-03
            5856            5927     31.5178E-03     32.8232E-03
            5856            5928     36.6497E-03     37.9851E-03
            5856            5945     32.7719E-03     33.6013E-03
            5856            5946     37.7183E-03     38.5484E-03
            5857            5928     36.6497E-03     37.9851E-03
            5857            5929     41.9347E-03     43.3053E-03
            5857            5946     37.7183E-03     38.5484E-03
            5857            5947     42.8465E-03     43.6925E-03
            5858            5929     41.9347E-03     43.3053E-03
            5858            5930     47.3436E-03     48.7568E-03
            5858            5947     42.8465E-03     43.6925E-03
            5858            5948     48.1079E-03     48.9810E-03
            5859            5930     47.3436E-03     48.7568E-03
            5859            5931     52.8488E-03     54.3156E-03
            5859            5948     48.1079E-03     48.9810E-03
            5859            5949     53.4809E-03     54.3908E-03
            5860            5931     52.8488E-03     54.3156E-03
            5860            5932     58.4450E-03     59.9826E-03
            5860            5949     53.4809E-03     54.3908E-03
            5860            5950     58.9296E-03     59.8944E-03
            5861            5932     58.4450E-03     59.9826E-03
            5861            5933     64.1106E-03     65.7432E-03
            5861            5950     58.9296E-03     59.8944E-03
            5861            5951     64.4464E-03     65.4804E-03
            5862            5933     64.1106E-03     65.7432E-03
            5862            5934     69.8634E-03     71.6099E-03
            5862            5951     64.4464E-03     65.4804E-03
            5862            5952     69.9571E-03     71.1076E-03
            5863            5934     69.8634E-03     71.6099E-03
            5863            5935     75.6332E-03     77.5433E-03
            5863            5952     69.9571E-03     71.1076E-03
            5863            5953     75.4395E-03     76.7183E-03
            5864            5935     75.6332E-03     77.5433E-03
            5864            5936     81.4871E-03     83.5120E-03
            5864            5953     75.4395E-03     76.7183E-03
            5864            5954     80.6930E-03     82.1972E-03
            5865            5936     81.4871E-03     83.5120E-03
            5865            5937     87.1989E-03     89.3895E-03
            5865            5954     80.6930E-03     82.1972E-03
            5865            5955     85.5402E-03     87.2681E-03
            5866            5937     87.1989E-03     89.3895E-03
            5866            5938     92.6988E-03     94.9072E-03
            5866            5955     85.5402E-03     87.2681E-03
            5866            5956     89.7695E-03     91.6471E-03
            5867            1008     98.0372E-03     99.8501E-03
            5867            1009     93.4230E-03     95.2671E-03
            5867            5938     92.6988E-03     94.9072E-03
            5867            5956     89.7695E-03     91.6471E-03
            5868             857     14.9926E-03     14.9560E-03
            5868             858     16.6170E-03     16.3718E-03
            5868            5939     15.1054E-03     13.7778E-03
            5868            5957     17.1393E-03     16.3173E-03
            5869            5939     15.1054E-03     13.7778E-03
            5869            5940     15.5265E-03     15.1813E-03
            5869            5957     17.1393E-03     16.3173E-03
            5869            5958     17.7992E-03     18.1004E-03
            5870            5940     15.5265E-03     15.1813E-03
            5870            5941     17.2148E-03     17.6778E-03
            5870            5958     17.7992E-03     18.1004E-03
            5870            5959     19.2730E-03     20.1896E-03
            5871            5941     17.2148E-03     17.6778E-03
            5871            5942     20.0142E-03     20.8629E-03
            5871            5959     19.2730E-03     20.1896E-03
            5871            5960     21.9987E-03     22.7576E-03
            5872            5942     20.0142E-03     20.8629E-03
            5872            5943     23.7452E-03     24.6221E-03
            5872            5960     21.9987E-03     22.7576E-03
            5872            5961     25.5667E-03     26.1119E-03
            5873            5943     23.7452E-03     24.6221E-03
            5873            5944     28.0770E-03     28.9232E-03
            5873            5961     25.5667E-03     26.1119E-03
            5873            5962     29.6340E-03     30.0654E-03
            5874            5944     28.0770E-03     28.9232E-03
            5874            5945     32.7719E-03     33.6013E-03
            5874            5962     29.6340E-03     30.0654E-03
            5874            5963     34.0807E-03     34.4469E-03
            5875            5945     32.7719E-03     33.6013E-03
            5875            5946     37.7183E-03     38.5484E-03
            5875            5963     34.0807E-03     34.4469E-03
            5875            5964     38.7778E-03     39.1227E-03
            5876            5946     37.7183E-03     38.5484E-03
            5876            5947     42.8465E-03     43.6925E-03
            5876            5964     38.7778E-03     39.1227E-03
            5876            5965     43.6617E-03     44.0010E-03
            5877            5947     42.8465E-03     43.6925E-03
            5877            5948     48.1079E-03     48.9810E-03
            5877            5965     43.6617E-03     44.0010E-03
            5877            5966     48.6861E-03     49.0275E-03
            5878            5948     48.1079E-03     48.9810E-03
            5878            5949     53.4809E-03     54.3908E-03
            5878            5966     48.6861E-03     49.0275E-03
            5878            5967     53.8062E-03     54.1580E-03
            5879            5949     53.4809E-03     54.3908E-03
            5879            5950     58.9296E-03     59.8944E-03
            5879            5967     53.8062E-03     54.1580E-03
            5879            5968     59.0005E-03     59.3638E-03
            5880            5950     58.9296E-03     59.8944E-03
            5880            5951     64.4464E-03     65.4804E-03
            5880            5968     59.0005E-03     59.3638E-03
            5880            5969     64.2077E-03     64.6057E-03
            5881            5951     64.4464E-03     65.4804E-03
            5881            5952     69.9571E-03     71.1076E-03
            5881            5969     64.2077E-03     64.6057E-03
            5881            5970     69.3905E-03     69.8325E-03
            5882            5952     69.9571E-03     71.1076E-03
            5882            5953     75.4395E-03     76.7183E-03
            5882            5970     69.3905E-03     69.8325E-03
            5882            5971     74.4109E-03     74.9604E-03
            5883            5953     75.4395E-03     76.7183E-03
            5883            5954     80.6930E-03     82.1972E-03
            5883            5971     74.4109E-03     74.9604E-03
            5883            5972     79.1111E-03     79.8185E-03
            5884            5954     80.6930E-03     82.1972E-03
            5884            5955     85.5402E-03     87.2681E-03
            5884            5972     79.1111E-03     79.8185E-03
            5884            5973     83.2239E-03     84.1866E-03
            5885            5955     85.5402E-03     87.2681E-03
            5885            5956     89.7695E-03     91.6471E-03
            5885            5973     83.2239E-03     84.1866E-03
            5885            5974     86.3298E-03     87.6481E-03
            5886            1009     93.4230E-03     95.2671E-03
            5886            1010     88.4965E-03     89.9492E-03
            5886            5956     89.7695E-03     91.6471E-03
            5886            5974     86.3298E-03     87.6481E-03
            5887             858     16.6170E-03     16.3718E-03
            5887             859     18.8081E-03     19.4864E-03
            5887            5957     17.1393E-03     16.3173E-03
            5887            5975     19.2211E-03     19.8291E-03
            5888            5957     17.1393E-03     16.3173E-03
            5888            5958     17.7992E-03     18.1004E-03
            5888            5975     19.2211E-03     19.8291E-03
            5888            5976     19.5412E-03     21.1955E-03
            5889            5958     17.7992E-03     18.1004E-03
            5889            5959     19.2730E-03     20.1896E-03
            5889            5976     19.5412E-03     21.1955E-03
            5889            5977     21.4021E-03     22.4775E-03
            5890            5959     19.2730E-03     20.1896E-03
            5890            5960     21.9987E-03     22.7576E-03
            5890            5977     21.4021E-03     22.4775E-03
            5890            5978     24.2291E-03     24.6831E-03
            5891            5960     21.9987E-03     22.7576E-03
            5891            5961     25.5667E-03     26.1119E-03
            5891            5978     24.2291E-03     24.6831E-03
            5891            5979     27.5777E-03     27.7460E-03
            5892            5961     25.5667E-03     26.1119E-03
            5892            5962     29.6340E-03     30.0654E-03
            5892            5979     27.5777E-03     27.7460E-03
            5892            5980     31.3934E-03     31.4004E-03
            5893            5962     29.6340E-03     30.0654E-03
            5893            5963     34.0807E-03     34.4469E-03
            5893            5980     31.3934E-03     31.4004E-03
            5893            5981     35.5315E-03     35.4678E-03
            5894            5963     34.0807E-03     34.4469E-03
            5894            5964     38.7778E-03     39.1227E-03
            5894            5981     35.5315E-03     35.4678E-03
            5894            5982     39.9190E-03     39.8143E-03
            5895            5964     38.7778E-03     39.1227E-03
            5895            5965     43.6617E-03     44.0010E-03
            5895            5982     39.9190E-03     39.8143E-03
            5895            5983     44.4827E-03     44.3492E-03
            5896            5965     43.6617E-03     44.0010E-03
            5896            5966     48.6861E-03     49.0275E-03
            5896            5983     44.4827E-03     44.3492E-03
            5896            5984     49.1659E-03     49.0073E-03
            5897            5966     48.6861E-03     49.0275E-03
            5897            5967     53.8062E-03     54.1580E-03
            5897            5984     49.1659E-03     49.0073E-03
            5897            5985     53.9321E-03     53.7393E-03
            5898            5967     53.8062E-03     54.1580E-03
            5898            5968     59.0005E-03     59.3638E-03
            5898            5985     53.9321E-03     53.7393E-03
            5898            5986     58.7247E-03     58.5009E-03
            5899            5968     59.0005E-03     59.3638E-03
            5899            5969     64.2077E-03     64.6057E-03
            5899            5986     58.7247E-03     58.5009E-03
            5899            5987     63.5072E-03     63.2380E-03
            5900            5969     64.2077E-03     64.6057E-03
            5900            5970     69.3905E-03     69.8325E-03
            5900            5987     63.5072E-03     63.2380E-03
            5900            5988     68.1885E-03     67.8899E-03
            5901            5970     69.3905E-03     69.8325E-03
            5901            5971     74.4109E-03     74.9604E-03
            5901            5988     68.1885E-03     67.8899E-03
            5901            5989     72.6675E-03     72.3462E-03
            5902            5971     74.4109E-03     74.9604E-03
            5902            5972     79.1111E-03     79.8185E-03
            5902            5989     72.6675E-03     72.3462E-03
            5902            5990     76.7711E-03     76.4690E-03
            5903            5972     79.1111E-03     79.8185E-03
            5903            5973     83.2239E-03     84.1866E-03
            5903            5990     76.7711E-03     76.4690E-03
            5903            5991     80.2004E-03     80.0260E-03
            5904            5973     83.2239E-03     84.1866E-03
            5904            5974     86.3298E-03     87.6481E-03
            5904            5991     80.2004E-03     80.0260E-03
            5904            5992     82.6354E-03     82.6955E-03
            5905            1010     88.4965E-03     89.9492E-03
            5905            1011     83.3634E-03     83.8592E-03
            5905            5974     86.3298E-03     87.6481E-03
            5905            5992     82.6354E-03     82.6955E-03
            5906             859     18.8081E-03     19.4864E-03
            5906             860     19.5780E-03     23.4407E-03
            5906            5975     19.2211E-03     19.8291E-03
            5906            5993     19.8916E-03     23.2579E-03
            5907            5975     19.2211E-03     19.8291E-03
            5907            5976     19.5412E-03     21.1955E-03
            5907            5993     19.8916E-03     23.2579E-03
            5907            5994     21.6333E-03     23.3568E-03
            5908            5976     19.5412E-03     21.1955E-03
            5908            5977     21.4021E-03     22.4775E-03
            5908            5994     21.6333E-03     23.3568E-03
            5908            5995     24.0573E-03     24.5138E-03
            5909            5977     21.4021E-03     22.4775E-03
            5909            5978     24.2291E-03     24.6831E-03
            5909            5995     24.0573E-03     24.5138E-03
            5909            5996     26.7878E-03     26.7520E-03
            5910            5978     24.2291E-03     24.6831E-03
            5910            5979     27.5777E-03     27.7460E-03
            5910            5996     26.7878E-03     26.7520E-03
            5910            5997     29.9187E-03     29.6670E-03
            5911            5979     27.5777E-03     27.7460E-03
            5911            5980     31.3934E-03     31.4004E-03
            5911            5997     29.9187E-03     29.6670E-03
            5911            5998     33.4319E-03     33.0633E-03
            5912            5980     31.3934E-03     31.4004E-03
            5912            5981     35.5315E-03     35.4678E-03
            5912            5998     33.4319E-03     33.0633E-03
            5912            5999     37.2386E-03     36.8055E-03
            5913            5981     35.5315E-03     35.4678E-03
            5913            5982     39.9190E-03     39.8143E-03
            5913            5999     37.2386E-03     36.8055E-03
            5913            6000     41.2693E-03     40.7775E-03
            5914            5982     39.9190E-03     39.8143E-03
            5914            5983     44.4827E-03     44.3492E-03
            5914            6000     41.2693E-03     40.7775E-03
            5914            6001     45.4475E-03     44.9028E-03
            5915            5983     44.4827E-03     44.3492E-03
            5915            5984     49.1659E-03     49.0073E-03
            5915            6001     45.4475E-03     44.9028E-03
            5915            6002     49.7211E-03     49.1113E-03
            5916            5984     49.1659E-03     49.0073E-03
            5916            5985     53.9321E-03     53.7393E-03
            5916            6002     49.7211E-03     49.1113E-03
            5916            6003     54.0258E-03     53.3472E-03
            5917            5985     53.9321E-03     53.7393E-03
            5917            5986     58.7247E-03     58.5009E-03
            5917            6003     54.0258E-03     53.3472E-03
            5917            6004     58.3185E-03     57.5438E-03
            5918            5986     58.7247E-03     58.5009E-03
            5918            5987     63.5072E-03     63.2380E-03
            5918            6004     58.3185E-03     57.5438E-03
            5918            6005     62.5254E-03     61.6440E-03
            5919            5987     63.5072E-03     63.2380E-03
            5919            5988     68.1885E-03     67.8899E-03
            5919            6005     62.5254E-03     61.6440E-03
            5919            6006     66.5782E-03     65.5476E-03
            5920            5988     68.1885E-03     67.8899E-03
            5920            5989     72.6675E-03     72.3462E-03
            5920            6006     66.5782E-03     65.5476E-03
            5920            6007     70.3701E-03     69.1653E-03
            5921            5989     72.6675E-03     72.3462E-03
            5921            5990     76.7711E-03     76.4690E-03
            5921            6007     70.3701E-03     69.1653E-03
            5921            6008     73.7449E-03     72.3349E-03
            5922            5990     76.7711E-03     76.4690E-03
            5922            5991     80.2004E-03     80.0260E-03
            5922            6008     73.7449E-03     72.3349E-03
            5922            6009     76.5190E-03     74.8678E-03
            5923            5991     80.2004E-03     80.0260E-03
            5923            5992     82.6354E-03     82.6955E-03
            5923            6009     76.5190E-03     74.8678E-03
            5923            6010     78.3362E-03     76.5062E-03
            5924            1011     83.3634E-03     83.8592E-03
            5924            1012     78.5703E-03     76.6885E-03
            5924            5992     82.6354E-03     82.6955E-03
            5924            6010     78.3362E-03     76.5062E-03
            5925             860     19.5780E-03     23.4407E-03
            5925             861     16.3722E-03     19.2270E-03
            5925            5993     19.8916E-03     23.2579E-03
            5925            6011     16.3777E-03     17.8739E-03
            5926            5993     19.8916E-03     23.2579E-03
            5926            5994     21.6333E-03     23.3568E-03
            5926            6011     16.3777E-03     17.8739E-03
            5926            6012     16.5988E-03     16.8099E-03
            5927            5994     21.6333E-03     23.3568E-03
            5927            5995     24.0573E-03     24.5138E-03
            5927            6012     16.5988E-03     16.8099E-03
            5927            6013     17.4968E-03     17.7036E-03
            5928            5995     24.0573E-03     24.5138E-03
            5928            5996     26.7878E-03     26.7520E-03
            5928            6013     17.4968E-03     17.7036E-03
            5928            6014     19.1741E-03     19.6904E-03
            5929            5996     26.7878E-03     26.7520E-03
            5929            5997     29.9187E-03     29.6670E-03
            5929            6014     19.1741E-03     19.6904E-03
            5929            6015     21.3676E-03     22.0992E-03
            5930            5997     29.9187E-03     29.6670E-03
            5930            5998     33.4319E-03     33.0633E-03
            5930            6015     21.3676E-03     22.0992E-03
            5930            6016     23.9721E-03     24.8662E-03
            5931            5998     33.4319E-03     33.0633E-03
            5931            5999     37.2386E-03     36.8055E-03
            5931            6016     23.9721E-03     24.8662E-03
            5931            6017     26.8065E-03     27.7958E-03
            5932            5999     37.2386E-03     36.8055E-03
            5932            6000     41.2693E-03     40.7775E-03
            5932            6017     26.8065E-03     27.7958E-03
            5932            6018     29.8281E-03     30.8662E-03
            5933            6000     41.2693E-03     40.7775E-03
            5933            6001     45.4475E-03     44.9028E-03
            5933            6018     29.8281E-03     30.8662E-03
            5933            6019     32.9470E-03     34.0069E-03
            5934            6001     45.4475E-03     44.9028E-03
            5934            6002     49.7211E-03     49.1113E-03
            5934            6019     32.9470E-03     34.0069E-03
            5934            6020     36.1455E-03     37.1953E-03
            5935            6002     49.7211E-03     49.1113E-03
            5935            6003     54.0258E-03     53.3472E-03
            5935            6020     36.1455E-03     37.1953E-03
            5935            6021     39.3732E-03     40.3996E-03
            5936            6003     54.0258E-03     53.3472E-03
            5936            6004     58.3185E-03     57.5438E-03
            5936            6021     39.3732E-03     40.3996E-03
            5936            6022     42.6259E-03     43.5951E-03
            5937            6004     58.3185E-03     57.5438E-03
            5937            6005     62.5254E-03     61.6440E-03
            5937            6022     42.6259E-03     43.5951E-03
            5937            6023     45.8696E-03     46.7682E-03
            5938            6005     62.5254E-03     61.6440E-03
            5938            6006     66.5782E-03     65.5476E-03
            5938            6023     45.8696E-03     46.7682E-03
            5938            6024     49.1298E-03     49.9066E-03
            5939            6006     66.5782E-03     65.5476E-03
            5939            6007     70.3701E-03     69.1653E-03
            5939            6024     49.1298E-03     49.9066E-03
            5939            6025     52.3758E-03     53.0259E-03
            5940            6007     70.3701E-03     69.1653E-03
            5940            6008     73.7449E-03     72.3349E-03
            5940            6025     52.3758E-03     53.0259E-03
            5940            6026     55.7163E-03     56.1595E-03
            5941            6008     73.7449E-03     72.3349E-03
            5941            6009     76.5190E-03     74.8678E-03
            5941            6026     55.7163E-03     56.1595E-03
            5941            6027     59.1159E-03     59.4187E-03
            5942            6009     76.5190E-03     74.8678E-03
            5942            6010     78.3362E-03     76.5062E-03
            5942            6027     59.1159E-03     59.4187E-03
            5942            6028     62.9195E-03     63.0277E-03
            5943            1012     78.5703E-03     76.6885E-03
            5943            1013     67.0910E-03     67.3572E-03
            5943            6010     78.3362E-03     76.5062E-03
            5943            6028     62.9195E-03     63.0277E-03
            5944             861     16.3722E-03     19.2270E-03
            5944             862     12.5581E-03     12.8076E-03
            5944            6011     16.3777E-03     17.8739E-03
            5944            6029     12.5541E-03     11.2655E-03
            5945            6011     16.3777E-03     17.8739E-03
            5945            6012     16.5988E-03     16.8099E-03
            5945            6029     12.5541E-03     11.2655E-03
            5945            6030     10.8670E-03     10.3573E-03
            5946            6012     16.5988E-03     16.8099E-03
            5946            6013     17.4968E-03     17.7036E-03
            5946            6030     10.8670E-03     10.3573E-03
            5946            6031     10.3342E-03     10.6841E-03
            5947            6013     17.4968E-03     17.7036E-03
            5947            6014     19.1741E-03     19.6904E-03
            5947            6031     10.3342E-03     10.6841E-03
            5947            6032     11.0696E-03     12.1763E-03
            5948            6014     19.1741E-03     19.6904E-03
            5948            6015     21.3676E-03     22.0992E-03
            5948            6032     11.0696E-03     12.1763E-03
            5948            6033     12.4206E-03     14.0885E-03
            5949            6015     21.3676E-03     22.0992E-03
            5949            6016     23.9721E-03     24.8662E-03
            5949            6033     12.4206E-03     14.0885E-03
            5949            6034     14.1922E-03     16.2317E-03
            5950            6016     23.9721E-03     24.8662E-03
            5950            6017     26.8065E-03     27.7958E-03
            5950            6034     14.1922E-03     16.2317E-03
            5950            6035     16.1878E-03     18.4839E-03
            5951            6017     26.8065E-03     27.7958E-03
            5951            6018     29.8281E-03     30.8662E-03
            5951            6035     16.1878E-03     18.4839E-03
            5951            6036     18.3303E-03     20.7944E-03
            5952            6018     29.8281E-03     30.8662E-03
            5952            6019     32.9470E-03     34.0069E-03
            5952            6036     18.3303E-03     20.7944E-03
            5952            6037     20.5716E-03     23.1517E-03
            5953            6019     32.9470E-03     34.0069E-03
            5953            6020     36.1455E-03     37.1953E-03
            5953            6037     20.5716E-03     23.1517E-03
            5953            6038     22.8872E-03     25.5406E-03
            5954            6020     36.1455E-03     37.1953E-03
            5954            6021     39.3732E-03     40.3996E-03
            5954            6038     22.8872E-03     25.5406E-03
            5954            6039     25.2762E-03     27.9799E-03
            5955            6021     39.3732E-03     40.3996E-03
            5955            6022     42.6259E-03     43.5951E-03
            5955            6039     25.2762E-03     27.9799E-03
            5955            6040     27.7445E-03     30.4717E-03
            5956            6022     42.6259E-03     43.5951E-03
            5956            6023     45.8696E-03     46.7682E-03
            5956            6040     27.7445E-03     30.4717E-03
            5956            6041     30.3413E-03     33.0809E-03
            5957            6023     45.8696E-03     46.7682E-03
            5957            6024     49.1298E-03     49.9066E-03
            5957            6041     30.3413E-03     33.0809E-03
            5957            6042     33.1175E-03     35.8501E-03
            5958            6024     49.1298E-03     49.9066E-03
            5958            6025     52.3758E-03     53.0259E-03
            5958            6042     33.1175E-03     35.8501E-03
            5958            6043     36.2409E-03     38.9617E-03
            5959            6025     52.3758E-03     53.0259E-03
            5959            6026     55.7163E-03     56.1595E-03
            5959            6043     36.2409E-03     38.9617E-03
            5959            6044     39.8509E-03     42.5693E-03
            5960            6026     55.7163E-03     56.1595E-03
            5960            6027     59.1159E-03     59.4187E-03
            5960            6044     39.8509E-03     42.5693E-03
            5960            6045     44.4516E-03     47.1837E-03
            5961            6027     59.1159E-03     59.4187E-03
            5961            6028     62.9195E-03     63.0277E-03
            5961            6045     44.4516E-03     47.1837E-03
            5961            6046     50.3742E-03     53.2397E-03
            5962            1013     67.0910E-03     67.3572E-03
            5962            1014     59.6229E-03     62.6970E-03
            5962            6028     62.9195E-03     63.0277E-03
            5962            6046     50.3742E-03     53.2397E-03
            5963             862     12.5581E-03     12.8076E-03
            5963             863     11.4071E-03     11.0169E-03
            5963            6029     12.5541E-03     11.2655E-03
            5963            6047     11.8475E-03     10.6638E-03
            5964            6029     12.5541E-03     11.2655E-03
            5964            6030     10.8670E-03     10.3573E-03
            5964            6047     11.8475E-03     10.6638E-03
            5964            6048     11.8078E-03     11.2108E-03
            5965            6030     10.8670E-03     10.3573E-03
            5965            6031     10.3342E-03     10.6841E-03
            5965            6048     11.8078E-03     11.2108E-03
            5965            6049     11.9291E-03     12.0204E-03
            5966            6031     10.3342E-03     10.6841E-03
            5966            6032     11.0696E-03     12.1763E-03
            5966            6049     11.9291E-03     12.0204E-03
            5966            6050     12.7049E-03     13.4019E-03
            5967            6032     11.0696E-03     12.1763E-03
            5967            6033     12.4206E-03     14.0885E-03
            5967            6050     12.7049E-03     13.4019E-03
            5967            6051     14.0461E-03     15.2257E-03
            5968            6033     12.4206E-03     14.0885E-03
            5968            6034     14.1922E-03     16.2317E-03
            5968            6051     14.0461E-03     15.2257E-03
            5968            6052     15.7093E-03     17.2376E-03
            5969            6034     14.1922E-03     16.2317E-03
            5969            6035     16.1878E-03     18.4839E-03
            5969            6052     15.7093E-03     17.2376E-03
            5969            6053     17.6196E-03     19.3900E-03
            5970            6035     16.1878E-03     18.4839E-03
            5970            6036     18.3303E-03     20.7944E-03
            5970            6053     17.6196E-03     19.3900E-03
            5970            6054     19.6885E-03     21.6297E-03
            5971            6036     18.3303E-03     20.7944E-03
            5971            6037     20.5716E-03     23.1517E-03
            5971            6054     19.6885E-03     21.6297E-03
            5971            6055     21.8792E-03     23.9389E-03
            5972            6037     20.5716E-03     23.1517E-03
            5972            6038     22.8872E-03     25.5406E-03
            5972            6055     21.8792E-03     23.9389E-03
            5972            6056     24.1656E-03     26.3114E-03
            5973            6038     22.8872E-03     25.5406E-03
            5973            6039     25.2762E-03     27.9799E-03
            5973            6056     24.1656E-03     26.3114E-03
            5973            6057     26.5330E-03     28.7417E-03
            5974            6039     25.2762E-03     27.9799E-03
            5974            6040     27.7445E-03     30.4717E-03
            5974            6057     26.5330E-03     28.7417E-03
            5974            6058     28.9971E-03     31.2528E-03
            5975            6040     27.7445E-03     30.4717E-03
            5975            6041     30.3413E-03     33.0809E-03
            5975            6058     28.9971E-03     31.2528E-03
            5975            6059     31.5712E-03     33.8655E-03
            5976            6041     30.3413E-03     33.0809E-03
            5976            6042     33.1175E-03     35.8501E-03
            5976            6059     31.5712E-03     33.8655E-03
            5976            6060     34.3489E-03     36.6621E-03
            5977            6042     33.1175E-03     35.8501E-03
            5977            6043     36.2409E-03     38.9617E-03
            5977            6060     34.3489E-03     36.6621E-03
            5977            6061     37.4083E-03     39.7441E-03
            5978            6043     36.2409E-03     38.9617E-03
            5978            6044     39.8509E-03     42.5693E-03
            5978            6061     37.4083E-03     39.7441E-03
            5978            6062     41.0389E-03     43.3376E-03
            5979            6044     39.8509E-03     42.5693E-03
            5979            6045     44.4516E-03     47.1837E-03
            5979            6062     41.0389E-03     43.3376E-03
            5979            6063     45.5240E-03     47.7940E-03
            5980            6045     44.4516E-03     47.1837E-03
            5980            6046     50.3742E-03     53.2397E-03
            5980            6063     45.5240E-03     47.7940E-03
            5980            6064     51.5924E-03     53.6548E-03
            5981            1014     59.6229E-03     62.6970E-03
            5981            1015     61.1941E-03     62.4461E-03
            5981            6046     50.3742E-03     53.2397E-03
            5981            6064     51.5924E-03     53.6548E-03
            5982             863     11.4071E-03     11.0169E-03
            5982             864     11.1225E-03     10.5978E-03
            5982            6047     11.8475E-03     10.6638E-03
            5982            6065     11.8309E-03     10.4084E-03
            5983            6047     11.8475E-03     10.6638E-03
            5983            6048     11.8078E-03     11.2108E-03
            5983            6065     11.8309E-03     10.4084E-03
            5983            6066     12.3141E-03     11.4760E-03
            5984            6048     11.8078E-03     11.2108E-03
            5984            6049     11.9291E-03     12.0204E-03
            5984            6066     12.3141E-03     11.4760E-03
            5984            6067     13.1010E-03     12.9262E-03
            5985            6049     11.9291E-03     12.0204E-03
            5985            6050     12.7049E-03     13.4019E-03
            5985            6067     13.1010E-03     12.9262E-03
            5985            6068     14.1140E-03     14.4856E-03
            5986            6050     12.7049E-03     13.4019E-03
            5986            6051     14.0461E-03     15.2257E-03
            5986            6068     14.1140E-03     14.4856E-03
            5986            6069     15.4589E-03     16.2531E-03
            5987            6051     14.0461E-03     15.2257E-03
            5987            6052     15.7093E-03     17.2376E-03
            5987            6069     15.4589E-03     16.2531E-03
            5987            6070     17.0945E-03     18.1983E-03
            5988            6052     15.7093E-03     17.2376E-03
            5988            6053     17.6196E-03     19.3900E-03
            5988            6070     17.0945E-03     18.1983E-03
            5988            6071     18.9409E-03     20.2621E-03
            5989            6053     17.6196E-03     19.3900E-03
            5989            6054     19.6885E-03     21.6297E-03
            5989            6071     18.9409E-03     20.2621E-03
            5989            6072     20.9666E-03     22.4414E-03
            5990            6054     19.6885E-03     21.6297E-03
            5990            6055     21.8792E-03     23.9389E-03
            5990            6072     20.9666E-03     22.4414E-03
            5990            6073     23.1278E-03     24.7136E-03
            5991            6055     21.8792E-03     23.9389E-03
            5991            6056     24.1656E-03     26.3114E-03
            5991            6073     23.1278E-03     24.7136E-03
            5991            6074     25.4016E-03     27.0731E-03
            5992            6056     24.1656E-03     26.3114E-03
            5992            6057     26.5330E-03     28.7417E-03
            5992            6074     25.4016E-03     27.0731E-03
            5992            6075     27.7758E-03     29.5150E-03
            5993            6057     26.5330E-03     28.7417E-03
            5993            6058     28.9971E-03     31.2528E-03
            5993            6075     27.7758E-03     29.5150E-03
            5993            6076     30.2412E-03     32.0437E-03
            5994            6058     28.9971E-03     31.2528E-03
            5994            6059     31.5712E-03     33.8655E-03
            5994            6076     30.2412E-03     32.0437E-03
            5994            6077     32.8283E-03     34.6785E-03
            5995            6059     31.5712E-03     33.8655E-03
            5995            6060     34.3489E-03     36.6621E-03
            5995            6077     32.8283E-03     34.6785E-03
            5995            6078     35.5611E-03     37.4658E-03
            5996            6060     34.3489E-03     36.6621E-03
            5996            6061     37.4083E-03     39.7441E-03
            5996            6078     35.5611E-03     37.4658E-03
            5996            6079     38.5618E-03     40.4757E-03
            5997            6061     37.4083E-03     39.7441E-03
            5997            6062     41.0389E-03     43.3376E-03
            5997            6079     38.5618E-03     40.4757E-03
            5997            6080     41.9853E-03     43.8932E-03
            5998            6062     41.0389E-03     43.3376E-03
            5998            6063     45.5240E-03     47.7940E-03
            5998            6080     41.9853E-03     43.8932E-03
            5998            6081     46.1061E-03     47.8955E-03
            5999            6063     45.5240E-03     47.7940E-03
            5999            6064     51.5924E-03     53.6548E-03
            5999            6081     46.1061E-03     47.8955E-03
            5999            6082     51.7581E-03     53.1257E-03
            6000            1015     61.1941E-03     62.4461E-03
            6000            1016     58.7124E-03     59.7327E-03
            6000            6064     51.5924E-03     53.6548E-03
            6000            6082     51.7581E-03     53.1257E-03
            6001             864     11.1225E-03     10.5978E-03
            6001             865     11.4945E-03     10.7157E-03
            6001            6065     11.8309E-03     10.4084E-03
            6001            6083     12.3119E-03     10.9400E-03
            6002            6065     11.8309E-03     10.4084E-03
            6002            6066     12.3141E-03     11.4760E-03
            6002            6083     12.3119E-03     10.9400E-03
            6002            6084     13.0720E-03     12.1672E-03
            6003            6066     12.3141E-03     11.4760E-03
            6003            6067     13.1010E-03     12.9262E-03
            6003            6084     13.0720E-03     12.1672E-03
            6003            6085     14.0905E-03     13.7294E-03
            6004            6067     13.1010E-03     12.9262E-03
            6004            6068     14.1140E-03     14.4856E-03
            6004            6085     14.0905E-03     13.7294E-03
            6004            6086     15.3158E-03     15.4551E-03
            6005            6068     14.1140E-03     14.4856E-03
            6005            6069     15.4589E-03     16.2531E-03
            6005            6086     15.3158E-03     15.4551E-03
            6005            6087     16.7062E-03     17.2110E-03
            6006            6069     15.4589E-03     16.2531E-03
            6006            6070     17.0945E-03     18.1983E-03
            6006            6087     16.7062E-03     17.2110E-03
            6006            6088     18.3155E-03     19.0743E-03
            6007            6070     17.0945E-03     18.1983E-03
            6007            6071     18.9409E-03     20.2621E-03
            6007            6088     18.3155E-03     19.0743E-03
            6007            6089     20.1287E-03     21.0643E-03
            6008            6071     18.9409E-03     20.2621E-03
            6008            6072     20.9666E-03     22.4414E-03
            6008            6089     20.1287E-03     21.0643E-03
            6008            6090     22.1166E-03     23.1727E-03
            6009            6072     20.9666E-03     22.4414E-03
            6009            6073     23.1278E-03     24.7136E-03
            6009            6090     22.1166E-03     23.1727E-03
            6009            6091     24.2579E-03     25.4057E-03
            6010            6073     23.1278E-03     24.7136E-03
            6010            6074     25.4016E-03     27.0731E-03
            6010            6091     24.2579E-03     25.4057E-03
            6010            6092     26.5246E-03     27.7450E-03
            6011            6074     25.4016E-03     27.0731E-03
            6011            6075     27.7758E-03     29.5150E-03
            6011            6092     26.5246E-03     27.7450E-03
            6011            6093     28.8988E-03     30.1869E-03
            6012            6075     27.7758E-03     29.5150E-03
            6012            6076     30.2412E-03     32.0437E-03
            6012            6093     28.8988E-03     30.1869E-03
            6012            6094     31.3696E-03     32.7182E-03
            6013            6076     30.2412E-03     32.0437E-03
            6013            6077     32.8283E-03     34.6785E-03
            6013            6094     31.3696E-03     32.7182E-03
            6013            6095     33.9303E-03     35.3470E-03
            6014            6077     32.8283E-03     34.6785E-03
            6014            6078     35.5611E-03     37.4658E-03
            6014            6095     33.9303E-03     35.3470E-03
            6014            6096     36.5922E-03     38.0656E-03
            6015            6078     35.5611E-03     37.4658E-03
            6015            6079     38.5618E-03     40.4757E-03
            6015            6096     36.5922E-03     38.0656E-03
            6015            6097     39.3997E-03     40.9240E-03
            6016            6079     38.5618E-03     40.4757E-03
            6016            6080     41.9853E-03     43.8932E-03
            6016            6097     39.3997E-03     40.9240E-03
            6016            6098     42.3956E-03     43.9353E-03
            6017            6080     41.9853E-03     43.8932E-03
            6017            6081     46.1061E-03     47.8955E-03
            6017            6098     42.3956E-03     43.9353E-03
            6017            6099     45.8930E-03     47.2987E-03
            6018            6081     46.1061E-03     47.8955E-03
            6018            6082     51.7581E-03     53.1257E-03
            6018            6099     45.8930E-03     47.2987E-03
            6018            6100     49.8648E-03     51.1428E-03
            6019            1016     58.7124E-03     59.7327E-03
            6019            1017     54.4672E-03     55.6234E-03
            6019            6082     51.7581E-03     53.1257E-03
            6019            6100     49.8648E-03     51.1428E-03
            6020             865     11.4945E-03     10.7157E-03
            6020             866     11.9792E-03     11.2172E-03
            6020            6083     12.3119E-03     10.9400E-03
            6020            6101     13.0200E-03     11.7429E-03
            6021            6083     12.3119E-03     10.9400E-03
            6021            6084     13.0720E-03     12.1672E-03
            6021            6101     13.0200E-03     11.7429E-03
            6021            6102     14.0102E-03     13.1543E-03
            6022            6084     13.0720E-03     12.1672E-03
            6022            6085     14.0905E-03     13.7294E-03
            6022            6102     14.0102E-03     13.1543E-03
            6022            6103     15.1473E-03     14.7712E-03
            6023            6085     14.0905E-03     13.7294E-03
            6023            6086     15.3158E-03     15.4551E-03
            6023            6103     15.1473E-03     14.7712E-03
            6023            6104     16.4006E-03     16.4162E-03
            6024            6086     15.3158E-03     15.4551E-03
            6024            6087     16.7062E-03     17.2110E-03
            6024            6104     16.4006E-03     16.4162E-03
            6024            6105     17.8164E-03     18.1189E-03
            6025            6087     16.7062E-03     17.2110E-03
            6025            6088     18.3155E-03     19.0743E-03
            6025            6105     17.8164E-03     18.1189E-03
            6025            6106     19.3941E-03     19.8807E-03
            6026            6088     18.3155E-03     19.0743E-03
            6026            6089     20.1287E-03     21.0643E-03
            6026            6106     19.3941E-03     19.8807E-03
            6026            6107     21.1655E-03     21.7618E-03
            6027            6089     20.1287E-03     21.0643E-03
            6027            6090     22.1166E-03     23.1727E-03
            6027            6107     21.1655E-03     21.7618E-03
            6027            6108     23.1176E-03     23.7910E-03
            6028            6090     22.1166E-03     23.1727E-03
            6028            6091     24.2579E-03     25.4057E-03
            6028            6108     23.1176E-03     23.7910E-03
            6028            6109     25.2249E-03     25.9572E-03
            6029            6091     24.2579E-03     25.4057E-03
            6029            6092     26.5246E-03     27.7450E-03
            6029            6109     25.2249E-03     25.9572E-03
            6029            6110     27.4696E-03     28.2559E-03
            6030            6092     26.5246E-03     27.7450E-03
            6030            6093     28.8988E-03     30.1869E-03
            6030            6110     27.4696E-03     28.2559E-03
            6030            6111     29.8227E-03     30.6610E-03
            6031            6093     28.8988E-03     30.1869E-03
            6031            6094     31.3696E-03     32.7182E-03
            6031            6111     29.8227E-03     30.6610E-03
            6031            6112     32.2656E-03     33.1631E-03
            6032            6094     31.3696E-03     32.7182E-03
            6032            6095     33.9303E-03     35.3470E-03
            6032            6112     32.2656E-03     33.1631E-03
            6032            6113     34.7610E-03     35.7237E-03
            6033            6095     33.9303E-03     35.3470E-03
            6033            6096     36.5922E-03     38.0656E-03
            6033            6113     34.7610E-03     35.7237E-03
            6033            6114     37.2947E-03     38.3311E-03
            6034            6096     36.5922E-03     38.0656E-03
            6034            6097     39.3997E-03     40.9240E-03
            6034            6114     37.2947E-03     38.3311E-03
            6034            6115     39.7873E-03     40.9148E-03
            6035            6097     39.3997E-03     40.9240E-03
            6035            6098     42.3956E-03     43.9353E-03
            6035            6115     39.7873E-03     40.9148E-03
            6035            6116     42.2787E-03     43.4523E-03
            6036            6098     42.3956E-03     43.9353E-03
            6036            6099     45.8930E-03     47.2987E-03
            6036            6116     42.2787E-03     43.4523E-03
            6036            6117     44.6728E-03     45.9007E-03
            6037            6099     45.8930E-03     47.2987E-03
            6037            6100     49.8648E-03     51.1428E-03
            6037            6117     44.6728E-03     45.9007E-03
            6037            6118     47.1100E-03     48.2801E-03
            6038            1017     54.4672E-03     55.6234E-03
            6038            1018     50.1125E-03     50.9718E-03
            6038            6100     49.8648E-03     51.1428E-03
            6038            6118     47.1100E-03     48.2801E-03
            6039             866     11.9792E-03     11.2172E-03
            6039             867     12.7542E-03     11.8222E-03
            6039            6101     13.0200E-03     11.7429E-03
            6039            6119     13.9399E-03     12.7979E-03
            6040            6101     13.0200E-03     11.7429E-03
            6040            6102     14.0102E-03     13.1543E-03
            6040            6119     13.9399E-03     12.7979E-03
            6040            6120     15.0489E-03     14.3729E-03
            6041            6102     14.0102E-03     13.1543E-03
            6041            6103     15.1473E-03     14.7712E-03
            6041            6120     15.0489E-03     14.3729E-03
            6041            6121     16.2199E-03     15.9332E-03
            6042            6103     15.1473E-03     14.7712E-03
            6042            6104     16.4006E-03     16.4162E-03
            6042            6121     16.2199E-03     15.9332E-03
            6042            6122     17.4676E-03     17.4775E-03
            6043            6104     16.4006E-03     16.4162E-03
            6043            6105     17.8164E-03     18.1189E-03
            6043            6122     17.4676E-03     17.4775E-03
            6043            6123     18.8194E-03     19.0079E-03
            6044            6105     17.8164E-03     18.1189E-03
            6044            6106     19.3941E-03     19.8807E-03
            6044            6123     18.8194E-03     19.0079E-03
            6044            6124     20.3562E-03     20.6127E-03
            6045            6106     19.3941E-03     19.8807E-03
            6045            6107     21.1655E-03     21.7618E-03
            6045            6124     20.3562E-03     20.6127E-03
            6045            6125     22.0733E-03     22.3628E-03
            6046            6107     21.1655E-03     21.7618E-03
            6046            6108     23.1176E-03     23.7910E-03
            6046            6125     22.0733E-03     22.3628E-03
            6046            6126     23.9639E-03     24.2755E-03
            6047            6108     23.1176E-03     23.7910E-03
            6047            6109     25.2249E-03     25.9572E-03
            6047            6126     23.9639E-03     24.2755E-03
            6047            6127     26.0161E-03     26.3486E-03
            6048            6109     25.2249E-03     25.9572E-03
            6048            6110     27.4696E-03     28.2559E-03
            6048            6127     26.0161E-03     26.3486E-03
            6048            6128     28.1994E-03     28.5575E-03
            6049            6110     27.4696E-03     28.2559E-03
            6049            6111     29.8227E-03     30.6610E-03
            6049            6128     28.1994E-03     28.5575E-03
            6049            6129     30.4945E-03     30.8845E-03
            6050            6111     29.8227E-03     30.6610E-03
            6050            6112     32.2656E-03     33.1631E-03
            6050            6129     30.4945E-03     30.8845E-03
            6050            6130     32.8541E-03     33.2871E-03
            6051            6112     32.2656E-03     33.1631E-03
            6051            6113     34.7610E-03     35.7237E-03
            6051            6130     32.8541E-03     33.2871E-03
            6051            6131     35.2483E-03     35.7348E-03
            6052            6113     34.7610E-03     35.7237E-03
            6052            6114     37.2947E-03     38.3311E-03
            6052            6131     35.2483E-03     35.7348E-03
            6052            6132     37.5711E-03     38.1440E-03
            6053            6114     37.2947E-03     38.3311E-03
            6053            6115     39.7873E-03     40.9148E-03
            6053            6132     37.5711E-03     38.1440E-03
            6053            6133     39.7681E-03     40.4307E-03
            6054            6115     39.7873E-03     40.9148E-03
            6054            6116     42.2787E-03     43.4523E-03
            6054            6133     39.7681E-03     40.4307E-03
            6054            6134     41.6106E-03     42.4374E-03
            6055            6116     42.2787E-03     43.4523E-03
            6055            6117     44.6728E-03     45.9007E-03
            6055            6134     41.6106E-03     42.4374E-03
            6055            6135     43.0125E-03     43.9688E-03
            6056            6117     44.6728E-03     45.9007E-03
            6056            6118     47.1100E-03     48.2801E-03
            6056            6135     43.0125E-03     43.9688E-03
            6056            6136     44.1102E-03     45.0646E-03
            6057            1018     50.1125E-03     50.9718E-03
            6057            1019     45.3767E-03     46.2311E-03
            6057            6118     47.1100E-03     48.2801E-03
            6057            6136     44.1102E-03     45.0646E-03
            6058             867     12.7542E-03     11.8222E-03
            6058             868     13.5157E-03     12.9660E-03
            6058            6119     13.9399E-03     12.7979E-03
            6058            6137     14.9176E-03     14.1525E-03
            6059            6119     13.9399E-03     12.7979E-03
            6059            6120     15.0489E-03     14.3729E-03
            6059            6137     14.9176E-03     14.1525E-03
            6059            6138     16.1643E-03     15.7346E-03
            6060            6120     15.0489E-03     14.3729E-03
            6060            6121     16.2199E-03     15.9332E-03
            6060            6138     16.1643E-03     15.7346E-03
            6060            6139     17.3237E-03     17.2582E-03
            6061            6121     16.2199E-03     15.9332E-03
            6061            6122     17.4676E-03     17.4775E-03
            6061            6139     17.3237E-03     17.2582E-03
            6061            6140     18.4696E-03     18.5967E-03
            6062            6122     17.4676E-03     17.4775E-03
            6062            6123     18.8194E-03     19.0079E-03
            6062            6140     18.4696E-03     18.5967E-03
            6062            6141     19.7739E-03     19.8749E-03
            6063            6123     18.8194E-03     19.0079E-03
            6063            6124     20.3562E-03     20.6127E-03
            6063            6141     19.7739E-03     19.8749E-03
            6063            6142     21.2460E-03     21.2884E-03
            6064            6124     20.3562E-03     20.6127E-03
            6064            6125     22.0733E-03     22.3628E-03
            6064            6142     21.2460E-03     21.2884E-03
            6064            6143     22.8847E-03     22.8813E-03
            6065            6125     22.0733E-03     22.3628E-03
            6065            6126     23.9639E-03     24.2755E-03
            6065            6143     22.8847E-03     22.8813E-03
            6065            6144     24.6908E-03     24.6516E-03
            6066            6126     23.9639E-03     24.2755E-03
            6066            6127     26.0161E-03     26.3486E-03
            6066            6144     24.6908E-03     24.6516E-03
            6066            6145     26.6419E-03     26.5854E-03
            6067            6127     26.0161E-03     26.3486E-03
            6067            6128     28.1994E-03     28.5575E-03
            6067            6145     26.6419E-03     26.5854E-03
            6067            6146     28.7222E-03     28.6577E-03
            6068            6128     28.1994E-03     28.5575E-03
            6068            6129     30.4945E-03     30.8845E-03
            6068            6146     28.7222E-03     28.6577E-03
            6068            6147     30.8915E-03     30.8317E-03
            6069            6129     30.4945E-03     30.8845E-03
            6069            6130     32.8541E-03     33.2871E-03
            6069            6147     30.8915E-03     30.8317E-03
            6069            6148     33.1206E-03     33.0739E-03
            6070            6130     32.8541E-03     33.2871E-03
            6070            6131     35.2483E-03     35.7348E-03
            6070            6148     33.1206E-03     33.0739E-03
            6070            6149     35.3262E-03     35.3161E-03
            6071            6131     35.2483E-03     35.7348E-03
            6071            6132     37.5711E-03     38.1440E-03
            6071            6149     35.3262E-03     35.3161E-03
            6071            6150     37.4429E-03     37.4826E-03
            6072            6132     37.5711E-03     38.1440E-03
            6072            6133     39.7681E-03     40.4307E-03
            6072            6150     37.4429E-03     37.4826E-03
            6072            6151     39.2695E-03     39.4247E-03
            6073            6133     39.7681E-03     40.4307E-03
            6073            6134     41.6106E-03     42.4374E-03
            6073            6151     39.2695E-03     39.4247E-03
            6073            6152     40.6396E-03     40.9420E-03
            6074            6134     41.6106E-03     42.4374E-03
            6074            6135     43.0125E-03     43.9688E-03
            6074            6152     40.6396E-03     40.9420E-03
            6074            6153     41.2117E-03     41.7589E-03
            6075            6135     43.0125E-03     43.9688E-03
            6075            6136     44.1102E-03     45.0646E-03
            6075            6153     41.2117E-03     41.7589E-03
            6075            6154     40.9069E-03     41.6864E-03
            6076            1019     45.3767E-03     46.2311E-03
            6076            1020     40.6315E-03     41.2616E-03
            6076            6136     44.1102E-03     45.0646E-03
            6076            6154     40.9069E-03     41.6864E-03
            6077             868     13.5157E-03     12.9660E-03
            6077             869     14.4154E-03     13.7715E-03
            6077            6137     14.9176E-03     14.1525E-03
            6077            6155     16.0739E-03     15.5391E-03
            6078            6137     14.9176E-03     14.1525E-03
            6078            6138     16.1643E-03     15.7346E-03
            6078            6155     16.0739E-03     15.5391E-03
            6078            6156     17.3336E-03     17.4283E-03
            6079            6138     16.1643E-03     15.7346E-03
            6079            6139     17.3237E-03     17.2582E-03
            6079            6156     17.3336E-03     17.4283E-03
            6079            6157     18.3286E-03     18.7297E-03
            6080            6139     17.3237E-03     17.2582E-03
            6080            6140     18.4696E-03     18.5967E-03
            6080            6157     18.3286E-03     18.7297E-03
            6080            6158     19.4575E-03     19.6602E-03
            6081            6140     18.4696E-03     18.5967E-03
            6081            6141     19.7739E-03     19.8749E-03
            6081            6158     19.4575E-03     19.6602E-03
            6081            6159     20.7272E-03     20.7018E-03
            6082            6141     19.7739E-03     19.8749E-03
            6082            6142     21.2460E-03     21.2884E-03
            6082            6159     20.7272E-03     20.7018E-03
            6082            6160     22.1204E-03     21.9407E-03
            6083            6142     21.2460E-03     21.2884E-03
            6083            6143     22.8847E-03     22.8813E-03
            6083            6160     22.1204E-03     21.9407E-03
            6083            6161     23.6653E-03     23.3658E-03
            6084            6143     22.8847E-03     22.8813E-03
            6084            6144     24.6908E-03     24.6516E-03
            6084            6161     23.6653E-03     23.3658E-03
            6084            6162     25.3493E-03     24.9736E-03
            6085            6144     24.6908E-03     24.6516E-03
            6085            6145     26.6419E-03     26.5854E-03
            6085            6162     25.3493E-03     24.9736E-03
            6085            6163     27.1614E-03     26.7279E-03
            6086            6145     26.6419E-03     26.5854E-03
            6086            6146     28.7222E-03     28.6577E-03
            6086            6163     27.1614E-03     26.7279E-03
            6086            6164     29.0733E-03     28.6000E-03
            6087            6146     28.7222E-03     28.6577E-03
            6087            6147     30.8915E-03     30.8317E-03
            6087            6164     29.0733E-03     28.6000E-03
            6087            6165     31.0595E-03     30.5530E-03
            6088            6147     30.8915E-03     30.8317E-03
            6088            6148     33.1206E-03     33.0739E-03
            6088            6165     31.0595E-03     30.5530E-03
            6088            6166     33.0639E-03     32.5382E-03
            6089            6148     33.1206E-03     33.0739E-03
            6089            6149     35.3262E-03     35.3161E-03
            6089            6166     33.0639E-03     32.5382E-03
            6089            6167     35.0352E-03     34.4952E-03
            6090            6149     35.3262E-03     35.3161E-03
            6090            6150     37.4429E-03     37.4826E-03
            6090            6167     35.0352E-03     34.4952E-03
            6090            6168     36.8466E-03     36.3246E-03
            6091            6150     37.4429E-03     37.4826E-03
            6091            6151     39.2695E-03     39.4247E-03
            6091            6168     36.8466E-03     36.3246E-03
            6091            6169     38.3653E-03     37.8846E-03
            6092            6151     39.2695E-03     39.4247E-03
            6092            6152     40.6396E-03     40.9420E-03
            6092            6169     38.3653E-03     37.8846E-03
            6092            6170     39.3039E-03     38.9475E-03
            6093            6152     40.6396E-03     40.9420E-03
            6093            6153     41.2117E-03     41.7589E-03
            6093            6170     39.3039E-03     38.9475E-03
            6093            6171     39.3658E-03     39.2249E-03
            6094            6153     41.2117E-03     41.7589E-03
            6094            6154     40.9069E-03     41.6864E-03
            6094            6171     39.3658E-03     39.2249E-03
            6094            6172     38.0045E-03     38.2484E-03
            6095            1020     40.6315E-03     41.2616E-03
            6095            1021     35.6684E-03     36.2001E-03
            6095            6154     40.9069E-03     41.6864E-03
            6095            6172     38.0045E-03     38.2484E-03
            6096             869     14.4154E-03     13.7715E-03
            6096             870     15.6669E-03     15.7142E-03
            6096            6155     16.0739E-03     15.5391E-03
            6096            6173     17.1901E-03     17.8586E-03
            6097            6155     16.0739E-03     15.5391E-03
            6097            6156     17.3336E-03     17.4283E-03
            6097            6173     17.1901E-03     17.8586E-03
            6097            6174     18.2256E-03     19.3759E-03
            6098            6156     17.3336E-03     17.4283E-03
            6098            6157     18.3286E-03     18.7297E-03
            6098            6174     18.2256E-03     19.3759E-03
            6098            6175     19.3397E-03     19.9565E-03
            6099            6157     18.3286E-03     18.7297E-03
            6099            6158     19.4575E-03     19.6602E-03
            6099            6175     19.3397E-03     19.9565E-03
            6099            6176     20.5268E-03     20.6051E-03
            6100            6158     19.4575E-03     19.6602E-03
            6100            6159     20.7272E-03     20.7018E-03
            6100            6176     20.5268E-03     20.6051E-03
            6100            6177     21.7422E-03     21.5215E-03
            6101            6159     20.7272E-03     20.7018E-03
            6101            6160     22.1204E-03     21.9407E-03
            6101            6177     21.7422E-03     21.5215E-03
            6101            6178     23.0602E-03     22.6207E-03
            6102            6160     22.1204E-03     21.9407E-03
            6102            6161     23.6653E-03     23.3658E-03
            6102            6178     23.0602E-03     22.6207E-03
            6102            6179     24.4919E-03     23.9081E-03
            6103            6161     23.6653E-03     23.3658E-03
            6103            6162     25.3493E-03     24.9736E-03
            6103            6179     24.4919E-03     23.9081E-03
            6103            6180     26.0290E-03     25.3352E-03
            6104            6162     25.3493E-03     24.9736E-03
            6104            6163     27.1614E-03     26.7279E-03
            6104            6180     26.0290E-03     25.3352E-03
            6104            6181     27.6581E-03     26.8774E-03
            6105            6163     27.1614E-03     26.7279E-03
            6105            6164     29.0733E-03     28.6000E-03
            6105            6181     27.6581E-03     26.8774E-03
            6105            6182     29.3525E-03     28.4949E-03
            6106            6164     29.0733E-03     28.6000E-03
            6106            6165     31.0595E-03     30.5530E-03
            6106            6182     29.3525E-03     28.4949E-03
            6106            6183     31.0762E-03     30.1500E-03
            6107            6165     31.0595E-03     30.5530E-03
            6107            6166     33.0639E-03     32.5382E-03
            6107            6183     31.0762E-03     30.1500E-03
            6107            6184     32.7869E-03     31.7912E-03
            6108            6166     33.0639E-03     32.5382E-03
            6108            6167     35.0352E-03     34.4952E-03
            6108            6184     32.7869E-03     31.7912E-03
            6108            6185     34.4122E-03     33.3544E-03
            6109            6167     35.0352E-03     34.4952E-03
            6109            6168     36.8466E-03     36.3246E-03
            6109            6185     34.4122E-03     33.3544E-03
            6109            6186     35.8612E-03     34.7412E-03
            6110            6168     36.8466E-03     36.3246E-03
            6110            6169     38.3653E-03     37.8846E-03
            6110            6186     35.8612E-03     34.7412E-03
            6110            6187     36.9842E-03     35.8189E-03
            6111            6169     38.3653E-03     37.8846E-03
            6111            6170     39.3039E-03     38.9475E-03
            6111            6187     36.9842E-03     35.8189E-03
            6111            6188     37.5570E-03     36.3844E-03
            6112            6170     39.3039E-03     38.9475E-03
            6112            6171     39.3658E-03     39.2249E-03
            6112            6188     37.5570E-03     36.3844E-03
            6112            6189     37.2361E-03     36.1218E-03
            6113            6171     39.3658E-03     39.2249E-03
            6113            6172     38.0045E-03     38.2484E-03
            6113            6189     37.2361E-03     36.1218E-03
            6113            6190     35.5281E-03     34.6539E-03
            6114            1021     35.6684E-03     36.2001E-03
            6114            1022     31.4188E-03     31.1266E-03
            6114            6172     38.0045E-03     38.2484E-03
            6114            6190     35.5281E-03     34.6539E-03
            6115             870     15.6669E-03     15.7142E-03
            6115             871     15.5980E-03     18.4990E-03
            6115            6173     17.1901E-03     17.8586E-03
            6115            6191     17.9045E-03     20.0510E-03
            6116            6173     17.1901E-03     17.8586E-03
            6116            6174     18.2256E-03     19.3759E-03
            6116            6191     17.9045E-03     20.0510E-03
            6116            6192     19.3541E-03     20.4505E-03
            6117            6174     18.2256E-03     19.3759E-03
            6117            6175     19.3397E-03     19.9565E-03
            6117            6192     19.3541E-03     20.4505E-03
            6117            6193     20.5920E-03     20.7719E-03
            6118            6175     19.3397E-03     19.9565E-03
            6118            6176     20.5268E-03     20.6051E-03
            6118            6193     20.5920E-03     20.7719E-03
            6118            6194     21.7514E-03     21.5054E-03
            6119            6176     20.5268E-03     20.6051E-03
            6119            6177     21.7422E-03     21.5215E-03
            6119            6194     21.7514E-03     21.5054E-03
            6119            6195     22.9050E-03     22.3990E-03
            6120            6177     21.7422E-03     21.5215E-03
            6120            6178     23.0602E-03     22.6207E-03
            6120            6195     22.9050E-03     22.3990E-03
            6120            6196     24.1473E-03     23.4474E-03
            6121            6178     23.0602E-03     22.6207E-03
            6121            6179     24.4919E-03     23.9081E-03
            6121            6196     24.1473E-03     23.4474E-03
            6121            6197     25.4524E-03     24.6116E-03
            6122            6179     24.4919E-03     23.9081E-03
            6122            6180     26.0290E-03     25.3352E-03
            6122            6197     25.4524E-03     24.6116E-03
            6122            6198     26.8333E-03     25.8638E-03
            6123            6180     26.0290E-03     25.3352E-03
            6123            6181     27.6581E-03     26.8774E-03
            6123            6198     26.8333E-03     25.8638E-03
            6123            6199     28.2538E-03     27.1722E-03
            6124            6181     27.6581E-03     26.8774E-03
            6124            6182     29.3525E-03     28.4949E-03
            6124            6199     28.2538E-03     27.1722E-03
            6124            6200     29.6925E-03     28.5016E-03
            6125            6182     29.3525E-03     28.4949E-03
            6125            6183     31.0762E-03     30.1500E-03
            6125            6200     29.6925E-03     28.5016E-03
            6125            6201     31.1060E-03     29.8053E-03
            6126            6183     31.0762E-03     30.1500E-03
            6126            6184     32.7869E-03     31.7912E-03
            6126            6201     31.1060E-03     29.8053E-03
            6126            6202     32.4452E-03     31.0337E-03
            6127            6184     32.7869E-03     31.7912E-03
            6127            6185     34.4122E-03     33.3544E-03
            6127            6202     32.4452E-03     31.0337E-03
            6127            6203     33.6426E-03     32.1051E-03
            6128            6185     34.4122E-03     33.3544E-03
            6128            6186     35.8612E-03     34.7412E-03
            6128            6203     33.6426E-03     32.1051E-03
            6128            6204     34.6134E-03     32.9400E-03
            6129            6186     35.8612E-03     34.7412E-03
            6129            6187     36.9842E-03     35.8189E-03
            6129            6204     34.6134E-03     32.9400E-03
            6129            6205     35.2218E-03     33.3876E-03
            6130            6187     36.9842E-03     35.8189E-03
            6130            6188     37.5570E-03     36.3844E-03
            6130            6205     35.2218E-03     33.3876E-03
            6130            6206     35.3272E-03     33.3004E-03
            6131            6188     37.5570E-03     36.3844E-03
            6131            6189     37.2361E-03     36.1218E-03
            6131            6206     35.3272E-03     33.3004E-03
            6131            6207     34.6039E-03     32.3790E-03
            6132            6189     37.2361E-03     36.1218E-03
            6132            6190     35.5281E-03     34.6539E-03
            6132            6207     34.6039E-03     32.3790E-03
            6132            6208     32.7738E-03     30.3171E-03
            6133            1022     31.4188E-03     31.1266E-03
            6133            1023     28.6752E-03     26.2158E-03
            6133            6190     35.5281E-03     34.6539E-03
            6133            6208     32.7738E-03     30.3171E-03
            6134             871     15.5980E-03     18.4990E-03
            6134             872     12.0841E-03     15.3703E-03
            6134            6191     17.9045E-03     20.0510E-03
            6134            6209     15.9590E-03     16.9041E-03
            6135            6191     17.9045E-03     20.0510E-03
            6135            6192     19.3541E-03     20.4505E-03
            6135            6209     15.9590E-03     16.9041E-03
            6135            6210     17.1981E-03     17.3304E-03
            6136            6192     19.3541E-03     20.4505E-03
            6136            6193     20.5920E-03     20.7719E-03
            6136            6210     17.1981E-03     17.3304E-03
            6136            6211     17.8231E-03     17.7977E-03
            6137            6193     20.5920E-03     20.7719E-03
            6137            6194     21.7514E-03     21.5054E-03
            6137            6211     17.8231E-03     17.7977E-03
            6137            6212     18.3920E-03     18.3967E-03
            6138            6194     21.7514E-03     21.5054E-03
            6138            6195     22.9050E-03     22.3990E-03
            6138            6212     18.3920E-03     18.3967E-03
            6138            6213     18.9204E-03     18.8788E-03
            6139            6195     22.9050E-03     22.3990E-03
            6139            6196     24.1473E-03     23.4474E-03
            6139            6213     18.9204E-03     18.8788E-03
            6139            6214     19.5024E-03     19.4874E-03
            6140            6196     24.1473E-03     23.4474E-03
            6140            6197     25.4524E-03     24.6116E-03
            6140            6214     19.5024E-03     19.4874E-03
            6140            6215     20.1086E-03     20.1146E-03
            6141            6197     25.4524E-03     24.6116E-03
            6141            6198     26.8333E-03     25.8638E-03
            6141            6215     20.1086E-03     20.1146E-03
            6141            6216     20.7602E-03     20.7970E-03
            6142            6198     26.8333E-03     25.8638E-03
            6142            6199     28.2538E-03     27.1722E-03
            6142            6216     20.7602E-03     20.7970E-03
            6142            6217     21.4307E-03     21.4937E-03
            6143            6199     28.2538E-03     27.1722E-03
            6143            6200     29.6925E-03     28.5016E-03
            6143            6217     21.4307E-03     21.4937E-03
            6143            6218     22.1037E-03     22.1970E-03
            6144            6200     29.6925E-03     28.5016E-03
            6144            6201     31.1060E-03     29.8053E-03
            6144            6218     22.1037E-03     22.1970E-03
            6144            6219     22.7688E-03     22.8823E-03
            6145            6201     31.1060E-03     29.8053E-03
            6145            6202     32.4452E-03     31.0337E-03
            6145            6219     22.7688E-03     22.8823E-03
            6145            6220     23.3760E-03     23.5104E-03
            6146            6202     32.4452E-03     31.0337E-03
            6146            6203     33.6426E-03     32.1051E-03
            6146            6220     23.3760E-03     23.5104E-03
            6146            6221     23.9345E-03     24.0679E-03
            6147            6203     33.6426E-03     32.1051E-03
            6147            6204     34.6134E-03     32.9400E-03
            6147            6221     23.9345E-03     24.0679E-03
            6147            6222     24.3351E-03     24.4651E-03
            6148            6204     34.6134E-03     32.9400E-03
            6148            6205     35.2218E-03     33.3876E-03
            6148            6222     24.3351E-03     24.4651E-03
            6148            6223     24.6347E-03     24.7102E-03
            6149            6205     35.2218E-03     33.3876E-03
            6149            6206     35.3272E-03     33.3004E-03
            6149            6223     24.6347E-03     24.7102E-03
            6149            6224     24.5802E-03     24.6015E-03
            6150            6206     35.3272E-03     33.3004E-03
            6150            6207     34.6039E-03     32.3790E-03
            6150            6224     24.5802E-03     24.6015E-03
            6150            6225     24.3279E-03     24.1459E-03
            6151            6207     34.6039E-03     32.3790E-03
            6151            6208     32.7738E-03     30.3171E-03
            6151            6225     24.3279E-03     24.1459E-03
            6151            6226     23.0624E-03     22.8655E-03
            6152            1023     28.6752E-03     26.2158E-03
            6152            1024     21.1852E-03     20.9279E-03
            6152            6208     32.7738E-03     30.3171E-03
            6152            6226     23.0624E-03     22.8655E-03
            6153             872     12.0841E-03     15.3703E-03
            6153             873     10.1215E-03     10.2108E-03
            6153            6209     15.9590E-03     16.9041E-03
            6153            6227     13.6847E-03     12.9759E-03
            6154            6209     15.9590E-03     16.9041E-03
            6154            6210     17.1981E-03     17.3304E-03
            6154            6227     13.6847E-03     12.9759E-03
            6154            6228     14.4975E-03     14.4076E-03
            6155            6210     17.1981E-03     17.3304E-03
            6155            6211     17.8231E-03     17.7977E-03
            6155            6228     14.4975E-03     14.4076E-03
            6155            6229     14.5590E-03     14.7032E-03
            6156            6211     17.8231E-03     17.7977E-03
            6156            6212     18.3920E-03     18.3967E-03
            6156            6229     14.5590E-03     14.7032E-03
            6156            6230     14.5268E-03     14.8002E-03
            6157            6212     18.3920E-03     18.3967E-03
            6157            6213     18.9204E-03     18.8788E-03
            6157            6230     14.5268E-03     14.8002E-03
            6157            6231     14.4663E-03     14.8658E-03
            6158            6213     18.9204E-03     18.8788E-03
            6158            6214     19.5024E-03     19.4874E-03
            6158            6231     14.4663E-03     14.8658E-03
            6158            6232     14.4545E-03     14.9788E-03
            6159            6214     19.5024E-03     19.4874E-03
            6159            6215     20.1086E-03     20.1146E-03
            6159            6232     14.4545E-03     14.9788E-03
            6159            6233     14.4617E-03     15.1140E-03
            6160            6215     20.1086E-03     20.1146E-03
            6160            6216     20.7602E-03     20.7970E-03
            6160            6233     14.4617E-03     15.1140E-03
            6160            6234     14.4977E-03     15.2760E-03
            6161            6216     20.7602E-03     20.7970E-03
            6161            6217     21.4307E-03     21.4937E-03
            6161            6234     14.4977E-03     15.2760E-03
            6161            6235     14.5537E-03     15.4564E-03
            6162            6217     21.4307E-03     21.4937E-03
            6162            6218     22.1037E-03     22.1970E-03
            6162            6235     14.5537E-03     15.4564E-03
            6162            6236     14.6300E-03     15.6532E-03
            6163            6218     22.1037E-03     22.1970E-03
            6163            6219     22.7688E-03     22.8823E-03
            6163            6236     14.6300E-03     15.6532E-03
            6163            6237     14.7306E-03     15.8721E-03
            6164            6219     22.7688E-03     22.8823E-03
            6164            6220     23.3760E-03     23.5104E-03
            6164            6237     14.7306E-03     15.8721E-03
            6164            6238     14.8454E-03     16.1004E-03
            6165            6220     23.3760E-03     23.5104E-03
            6165            6221     23.9345E-03     24.0679E-03
            6165            6238     14.8454E-03     16.1004E-03
            6165            6239     14.9976E-03     16.3613E-03
            6166            6221     23.9345E-03     24.0679E-03
            6166            6222     24.3351E-03     24.4651E-03
            6166            6239     14.9976E-03     16.3613E-03
            6166            6240     15.1522E-03     16.6218E-03
            6167            6222     24.3351E-03     24.4651E-03
            6167            6223     24.6347E-03     24.7102E-03
            6167            6240     15.1522E-03     16.6218E-03
            6167            6241     15.3885E-03     16.9456E-03
            6168            6223     24.6347E-03     24.7102E-03
            6168            6224     24.5802E-03     24.6015E-03
            6168            6241     15.3885E-03     16.9456E-03
            6168            6242     15.5918E-03     17.2529E-03
            6169            6224     24.5802E-03     24.6015E-03
            6169            6225     24.3279E-03     24.1459E-03
            6169            6242     15.5918E-03     17.2529E-03
            6169            6243     16.0003E-03     17.6702E-03
            6170            6225     24.3279E-03     24.1459E-03
            6170            6226     23.0624E-03     22.8655E-03
            6170            6243     16.0003E-03     17.6702E-03
            6170            6244     16.0940E-03     17.9165E-03
            6171            1024     21.1852E-03     20.9279E-03
            6171            1025     15.9943E-03     18.2584E-03
            6171            6226     23.0624E-03     22.8655E-03
            6171            6244     16.0940E-03     17.9165E-03
            6172             873     10.1215E-03     10.2108E-03
            6172             874     11.0967E-03     9.04155E-03
            6172            6227     13.6847E-03     12.9759E-03
            6172            6245     13.7218E-03     12.7511E-03
            6173            6227     13.6847E-03     12.9759E-03
            6173            6228     14.4975E-03     14.4076E-03
            6173            6245     13.7218E-03     12.7511E-03
            6173            6246     14.7959E-03     14.8487E-03
            6174            6228     14.4975E-03     14.4076E-03
            6174            6229     14.5590E-03     14.7032E-03
            6174            6246     14.7959E-03     14.8487E-03
            6174            6247     14.9046E-03     14.9882E-03
            6175            6229     14.5590E-03     14.7032E-03
            6175            6230     14.5268E-03     14.8002E-03
            6175            6247     14.9046E-03     14.9882E-03
            6175            6248     14.8808E-03     14.8402E-03
            6176            6230     14.5268E-03     14.8002E-03
            6176            6231     14.4663E-03     14.8658E-03
            6176            6248     14.8808E-03     14.8402E-03
            6176            6249     14.8713E-03     14.8857E-03
            6177            6231     14.4663E-03     14.8658E-03
            6177            6232     14.4545E-03     14.9788E-03
            6177            6249     14.8713E-03     14.8857E-03
            6177            6250     14.9163E-03     14.9275E-03
            6178            6232     14.4545E-03     14.9788E-03
            6178            6233     14.4617E-03     15.1140E-03
            6178            6250     14.9163E-03     14.9275E-03
            6178            6251     15.0004E-03     15.0156E-03
            6179            6233     14.4617E-03     15.1140E-03
            6179            6234     14.4977E-03     15.2760E-03
            6179            6251     15.0004E-03     15.0156E-03
            6179            6252     15.0966E-03     15.1182E-03
            6180            6234     14.4977E-03     15.2760E-03
            6180            6235     14.5537E-03     15.4564E-03
            6180            6252     15.0966E-03     15.1182E-03
            6180            6253     15.2137E-03     15.2409E-03
            6181            6235     14.5537E-03     15.4564E-03
            6181            6236     14.6300E-03     15.6532E-03
            6181            6253     15.2137E-03     15.2409E-03
            6181            6254     15.3487E-03     15.3802E-03
            6182            6236     14.6300E-03     15.6532E-03
            6182            6237     14.7306E-03     15.8721E-03
            6182            6254     15.3487E-03     15.3802E-03
            6182            6255     15.4959E-03     15.5336E-03
            6183            6237     14.7306E-03     15.8721E-03
            6183            6238     14.8454E-03     16.1004E-03
            6183            6255     15.4959E-03     15.5336E-03
            6183            6256     15.6681E-03     15.7087E-03
            6184            6238     14.8454E-03     16.1004E-03
            6184            6239     14.9976E-03     16.3613E-03
            6184            6256     15.6681E-03     15.7087E-03
            6184            6257     15.8408E-03     15.8878E-03
            6185            6239     14.9976E-03     16.3613E-03
            6185            6240     15.1522E-03     16.6218E-03
            6185            6257     15.8408E-03     15.8878E-03
            6185            6258     16.0549E-03     16.1045E-03
            6186            6240     15.1522E-03     16.6218E-03
            6186            6241     15.3885E-03     16.9456E-03
            6186            6258     16.0549E-03     16.1045E-03
            6186            6259     16.2582E-03     16.3096E-03
            6187            6241     15.3885E-03     16.9456E-03
            6187            6242     15.5918E-03     17.2529E-03
            6187            6259     16.2582E-03     16.3096E-03
            6187            6260     16.5981E-03     16.6373E-03
            6188            6242     15.5918E-03     17.2529E-03
            6188            6243     16.0003E-03     17.6702E-03
            6188            6260     16.5981E-03     16.6373E-03
            6188            6261     16.9311E-03     17.0532E-03
            6189            6243     16.0003E-03     17.6702E-03
            6189            6244     16.0940E-03     17.9165E-03
            6189            6261     16.9311E-03     17.0532E-03
            6189            6262     17.8525E-03     17.6402E-03
            6190            1025     15.9943E-03     18.2584E-03
            6190            1026     17.2829E-03     17.5094E-03
            6190            6244     16.0940E-03     17.9165E-03
            6190            6262     17.8525E-03     17.6402E-03
            6191             874     11.0967E-03     9.04155E-03
            6191             875     10.2129E-03     10.3470E-03
            6191            6245     13.7218E-03     12.7511E-03
            6191            6263     13.6468E-03     13.3258E-03
            6192            6245     13.7218E-03     12.7511E-03
            6192            6246     14.7959E-03     14.8487E-03
            6192            6263     13.6468E-03     13.3258E-03
            6192            6264     14.8025E-03     14.7583E-03
            6193            6246     14.7959E-03     14.8487E-03
            6193            6247     14.9046E-03     14.9882E-03
            6193            6264     14.8025E-03     14.7583E-03
            6193            6265     15.1680E-03     15.0461E-03
            6194            6247     14.9046E-03     14.9882E-03
            6194            6248     14.8808E-03     14.8402E-03
            6194            6265     15.1680E-03     15.0461E-03
            6194            6266     15.3314E-03     15.0860E-03
            6195            6248     14.8808E-03     14.8402E-03
            6195            6249     14.8713E-03     14.8857E-03
            6195            6266     15.3314E-03     15.0860E-03
            6195            6267     15.4348E-03     15.0722E-03
            6196            6249     14.8713E-03     14.8857E-03
            6196            6250     14.9163E-03     14.9275E-03
            6196            6267     15.4348E-03     15.0722E-03
            6196            6268     15.5682E-03     15.0931E-03
            6197            6250     14.9163E-03     14.9275E-03
            6197            6251     15.0004E-03     15.0156E-03
            6197            6268     15.5682E-03     15.0931E-03
            6197            6269     15.7072E-03     15.1193E-03
            6198            6251     15.0004E-03     15.0156E-03
            6198            6252     15.0966E-03     15.1182E-03
            6198            6269     15.7072E-03     15.1193E-03
            6198            6270     15.8659E-03     15.1677E-03
            6199            6252     15.0966E-03     15.1182E-03
            6199            6253     15.2137E-03     15.2409E-03
            6199            6270     15.8659E-03     15.1677E-03
            6199            6271     16.0358E-03     15.2278E-03
            6200            6253     15.2137E-03     15.2409E-03
            6200            6254     15.3487E-03     15.3802E-03
            6200            6271     16.0358E-03     15.2278E-03
            6200            6272     16.2187E-03     15.3047E-03
            6201            6254     15.3487E-03     15.3802E-03
            6201            6255     15.4959E-03     15.5336E-03
            6201            6272     16.2187E-03     15.3047E-03
            6201            6273     16.4160E-03     15.3958E-03
            6202            6255     15.4959E-03     15.5336E-03
            6202            6256     15.6681E-03     15.7087E-03
            6202            6273     16.4160E-03     15.3958E-03
            6202            6274     16.6192E-03     15.4983E-03
            6203            6256     15.6681E-03     15.7087E-03
            6203            6257     15.8408E-03     15.8878E-03
            6203            6274     16.6192E-03     15.4983E-03
            6203            6275     16.8387E-03     15.6157E-03
            6204            6257     15.8408E-03     15.8878E-03
            6204            6258     16.0549E-03     16.1045E-03
            6204            6275     16.8387E-03     15.6157E-03
            6204            6276     17.0527E-03     15.7345E-03
            6205            6258     16.0549E-03     16.1045E-03
            6205            6259     16.2582E-03     16.3096E-03
            6205            6276     17.0527E-03     15.7345E-03
            6205            6277     17.2961E-03     15.8784E-03
            6206            6259     16.2582E-03     16.3096E-03
            6206            6260     16.5981E-03     16.6373E-03
            6206            6277     17.2961E-03     15.8784E-03
            6206            6278     17.5395E-03     16.0160E-03
            6207            6260     16.5981E-03     16.6373E-03
            6207            6261     16.9311E-03     17.0532E-03
            6207            6278     17.5395E-03     16.0160E-03
            6207            6279     17.8348E-03     16.2219E-03
            6208            6261     16.9311E-03     17.0532E-03
            6208            6262     17.8525E-03     17.6402E-03
            6208            6279     17.8348E-03     16.2219E-03
            6208            6280     17.9402E-03     16.1243E-03
            6209            1026     17.2829E-03     17.5094E-03
            6209            1027     16.2109E-03     14.4476E-03
            6209            6262     17.8525E-03     17.6402E-03
            6209            6280     17.9402E-03     16.1243E-03
            6210              37     4.91635E-03     6.04759E-03
            6210             875     10.2129E-03     10.3470E-03
            6210             894     7.03143E-03     7.21362E-03
            6210            6263     13.6468E-03     13.3258E-03
            6211             894     7.03143E-03     7.21362E-03
            6211             895     7.67172E-03     7.60391E-03
            6211            6263     13.6468E-03     13.3258E-03
            6211            6264     14.8025E-03     14.7583E-03
            6212             895     7.67172E-03     7.60391E-03
            6212             896     7.92777E-03     7.81328E-03
            6212            6264     14.8025E-03     14.7583E-03
            6212            6265     15.1680E-03     15.0461E-03
            6213             896     7.92777E-03     7.81328E-03
            6213             897     8.08131E-03     7.94233E-03
            6213            6265     15.1680E-03     15.0461E-03
            6213            6266     15.3314E-03     15.0860E-03
            6214             897     8.08131E-03     7.94233E-03
            6214             898     8.16816E-03     7.92066E-03
            6214            6266     15.3314E-03     15.0860E-03
            6214            6267     15.4348E-03     15.0722E-03
            6215             898     8.16816E-03     7.92066E-03
            6215             899     8.26248E-03     7.93699E-03
            6215            6267     15.4348E-03     15.0722E-03
            6215            6268     15.5682E-03     15.0931E-03
            6216             899     8.26248E-03     7.93699E-03
            6216             900     8.34561E-03     7.93939E-03
            6216            6268     15.5682E-03     15.0931E-03
            6216            6269     15.7072E-03     15.1193E-03
            6217             900     8.34561E-03     7.93939E-03
            6217             901     8.44408E-03     7.95679E-03
            6217            6269     15.7072E-03     15.1193E-03
            6217            6270     15.8659E-03     15.1677E-03
            6218             901     8.44408E-03     7.95679E-03
            6218             902     8.54590E-03     7.97868E-03
            6218            6270     15.8659E-03     15.1677E-03
            6218            6271     16.0358E-03     15.2278E-03
            6219             902     8.54590E-03     7.97868E-03
            6219             903     8.65331E-03     8.00733E-03
            6219            6271     16.0358E-03     15.2278E-03
            6219            6272     16.2187E-03     15.3047E-03
            6220             903     8.65331E-03     8.00733E-03
            6220             904     8.77167E-03     8.04801E-03
            6220            6272     16.2187E-03     15.3047E-03
            6220            6273     16.4160E-03     15.3958E-03
            6221             904     8.77167E-03     8.04801E-03
            6221             905     8.88373E-03     8.08409E-03
            6221            6273     16.4160E-03     15.3958E-03
            6221            6274     16.6192E-03     15.4983E-03
            6222             905     8.88373E-03     8.08409E-03
            6222             906     9.01831E-03     8.14370E-03
            6222            6274     16.6192E-03     15.4983E-03
            6222            6275     16.8387E-03     15.6157E-03
            6223             906     9.01831E-03     8.14370E-03
            6223             907     9.12058E-03     8.17244E-03
            6223            6275     16.8387E-03     15.6157E-03
            6223            6276     17.0527E-03     15.7345E-03
            6224             907     9.12058E-03     8.17244E-03
            6224             908     9.27875E-03     8.25791E-03
            6224            6276     17.0527E-03     15.7345E-03
            6224            6277     17.2961E-03     15.8784E-03
            6225             908     9.27875E-03     8.25791E-03
            6225             909     9.32946E-03     8.24169E-03
            6225            6277     17.2961E-03     15.8784E-03
            6225            6278     17.5395E-03     16.0160E-03
            6226             909     9.32946E-03     8.24169E-03
            6226             910     9.52860E-03     8.28432E-03
            6226            6278     17.5395E-03     16.0160E-03
            6226            6279     17.8348E-03     16.2219E-03
            6227             910     9.52860E-03     8.28432E-03
            6227             911     9.06937E-03     7.89669E-03
            6227            6279     17.8348E-03     16.2219E-03
            6227            6280     17.9402E-03     16.1243E-03
            6228              38     7.99197E-03     6.65555E-03
            6228             911     9.06937E-03     7.89669E-03
            6228            1027     16.2109E-03     14.4476E-03
            6228            6280     17.9402E-03     16.1243E-03
            6509              13     6.18179E-03     9.73074E-03
            6509             201     1.49944E-03     1.52629E-03
            6509             823     5.72620E-03     6.01110E-03
            6509            6519     1.15301E-03     1.22741E-03
            6510              36     5.23019E-03     2.89028E-03
            6510             823     5.72620E-03     6.01110E-03
            6510             993     872.842E-06     958.717E-06
            6510            6519     1.15301E-03     1.22741E-03
            6511             201     1.49944E-03     1.52629E-03
            6511             202     1.17882E-03     1.13595E-03
            6511            6519     1.15301E-03     1.22741E-03
            6511            6520     986.161E-06     993.347E-06
            6512             992     867.506E-06     905.706E-06
            6512             993     872.842E-06     958.717E-06
            6512            6519     1.15301E-03     1.22741E-03
            6512            6520     986.161E-06     993.347E-06
            6513             202     1.17882E-03     1.13595E-03
            6513             203     804.386E-06     858.428E-06
            6513            6520     986.161E-06     993.347E-06
            6513            6521     733.726E-06     762.202E-06
            6514             991     750.930E-06     786.064E-06
            6514             992     867.506E-06     905.706E-06
            6514            6520     986.161E-06     993.347E-06
            6514            6521     733.726E-06     762.202E-06
            6515             203     804.386E-06     858.428E-06
            6515             204     565.285E-06     538.913E-06
            6515            6521     733.726E-06     762.202E-06
            6515            6522     515.911E-06     522.168E-06
            6516             990     621.540E-06     656.864E-06
            6516             991     750.930E-06     786.064E-06
            6516            6521     733.726E-06     762.202E-06
            6516            6522     515.911E-06     522.168E-06
            6517             204     565.285E-06     538.913E-06
            6517             205     362.567E-06     348.872E-06
            6517            6522     515.911E-06     522.168E-06
            6517            6523     351.468E-06     343.879E-06
            6518             989     559.104E-06     552.825E-06
            6518             990     621.540E-06     656.864E-06
            6518            6522     515.911E-06     522.168E-06
            6518            6523     351.468E-06     343.879E-06
            6519             205     362.567E-06     348.872E-06
            6519             206     344.888E-06     439.307E-06
            6519            6523     351.468E-06     343.879E-06
            6519            6524     327.926E-06     340.291E-06
            6520             988     513.935E-06     444.354E-06
            6520             989     559.104E-06     552.825E-06
            6520            6523     351.468E-06     343.879E-06
            6520            6524     327.926E-06     340.291E-06
            6521              14     387.561E-06     595.394E-06
            6521             206     344.888E-06     439.307E-06
            6521            1028     356.110E-06     403.533E-06
            6521            6524     327.926E-06     340.291E-06
            6522              42     480.370E-06     381.279E-06
            6522             988     513.935E-06     444.354E-06
            6522            1028     356.110E-06     403.533E-06
            6522            6524     327.926E-06     340.291E-06
            6523              32     144.763E-03     147.767E-03
            6523             722     160.031E-03     165.053E-03
            6523             994     143.934E-03     147.337E-03
            6523            6525     165.195E-03     167.616E-03
            6524              10     173.709E-03     184.196E-03
            6524             284     188.841E-03     186.130E-03
            6524             722     160.031E-03     165.053E-03
            6524            6525     165.195E-03     167.616E-03
            6525             994     143.934E-03     147.337E-03
            6525             995     149.426E-03     151.777E-03
            6525            6525     165.195E-03     167.616E-03
            6525            6526     165.505E-03     166.257E-03
            6526             283     180.029E-03     175.146E-03
            6526             284     188.841E-03     186.130E-03
            6526            6525     165.195E-03     167.616E-03
            6526            6526     165.505E-03     166.257E-03
            6527             995     149.426E-03     151.777E-03
            6527             996     149.381E-03     151.966E-03
            6527            6526     165.505E-03     166.257E-03
            6527            6527     160.450E-03     163.267E-03
            6528             282     166.194E-03     170.575E-03
            6528             283     180.029E-03     175.146E-03
            6528            6526     165.505E-03     166.257E-03
            6528            6527     160.450E-03     163.267E-03
            6529             996     149.381E-03     151.966E-03
            6529             997     146.490E-03     149.535E-03
            6529            6527     160.450E-03     163.267E-03
            6529            6528     155.784E-03     157.674E-03
            6530             281     161.436E-03     159.927E-03
            6530             282     166.194E-03     170.575E-03
            6530            6527     160.450E-03     163.267E-03
            6530            6528     155.784E-03     157.674E-03
            6531             997     146.490E-03     149.535E-03
            6531             998     143.041E-03     145.674E-03
            6531            6528     155.784E-03     157.674E-03
            6531            6529     150.207E-03     152.415E-03
            6532             280     153.147E-03     154.493E-03
            6532             281     161.436E-03     159.927E-03
            6532            6528     155.784E-03     157.674E-03
            6532            6529     150.207E-03     152.415E-03
            6533             998     143.041E-03     145.674E-03
            6533             999     138.582E-03     141.344E-03
            6533            6529     150.207E-03     152.415E-03
            6533            6530     144.766E-03     146.468E-03
            6534             279     146.888E-03     145.967E-03
            6534             280     153.147E-03     154.493E-03
            6534            6529     150.207E-03     152.415E-03
            6534            6530     144.766E-03     146.468E-03
            6535             999     138.582E-03     141.344E-03
            6535            1000     133.620E-03     135.842E-03
            6535            6530     144.766E-03     146.468E-03
            6535            6531     138.369E-03     140.271E-03
            6536             278     138.307E-03     140.226E-03
            6536             279     146.888E-03     145.967E-03
            6536            6530     144.766E-03     146.468E-03
            6536            6531     138.369E-03     140.271E-03
            6537            1000     133.620E-03     135.842E-03
            6537            1001     127.779E-03     128.890E-03
            6537            6531     138.369E-03     140.271E-03
            6537            6532     131.342E-03     132.025E-03
            6538             277     133.668E-03     130.447E-03
            6538             278     138.307E-03     140.226E-03
            6538            6531     138.369E-03     140.271E-03
            6538            6532     131.342E-03     132.025E-03
            6539            1001     127.779E-03     128.890E-03
            6539            1002     121.156E-03     119.815E-03
            6539            6532     131.342E-03     132.025E-03
            6539            6533     123.269E-03     121.543E-03
            6540             276     126.637E-03     122.203E-03
            6540             277     133.668E-03     130.447E-03
            6540            6532     131.342E-03     132.025E-03
            6540            6533     123.269E-03     121.543E-03
            6541            1002     121.156E-03     119.815E-03
            6541            1003     109.035E-03     109.369E-03
            6541            6533     123.269E-03     121.543E-03
            6541            6534     118.947E-03     121.350E-03
            6542             275     128.651E-03     138.237E-03
            6542             276     126.637E-03     122.203E-03
            6542            6533     123.269E-03     121.543E-03
            6542            6534     118.947E-03     121.350E-03
            6543            1003     109.035E-03     109.369E-03
            6543            1004     103.186E-03     106.442E-03
            6543            6534     118.947E-03     121.350E-03
            6543            6535     121.595E-03     124.077E-03
            6544             274     141.768E-03     140.256E-03
            6544             275     128.651E-03     138.237E-03
            6544            6534     118.947E-03     121.350E-03
            6544            6535     121.595E-03     124.077E-03
            6545            1004     103.186E-03     106.442E-03
            6545            1005     106.741E-03     108.590E-03
            6545            6535     121.595E-03     124.077E-03
            6545            6536     120.313E-03     120.818E-03
            6546             273     132.637E-03     128.967E-03
            6546             274     141.768E-03     140.256E-03
            6546            6535     121.595E-03     124.077E-03
            6546            6536     120.313E-03     120.818E-03
            6547            1005     106.741E-03     108.590E-03
            6547            1006     105.511E-03     107.367E-03
            6547            6536     120.313E-03     120.818E-03
            6547            6537     114.479E-03     116.570E-03
            6548             272     119.568E-03     123.036E-03
            6548             273     132.637E-03     128.967E-03
            6548            6536     120.313E-03     120.818E-03
            6548            6537     114.479E-03     116.570E-03
            6549            1006     105.511E-03     107.367E-03
            6549            1007     101.960E-03     104.114E-03
            6549            6537     114.479E-03     116.570E-03
            6549            6538     109.123E-03     110.437E-03
            6550             271     113.724E-03     112.559E-03
            6550             272     119.568E-03     123.036E-03
            6550            6537     114.479E-03     116.570E-03
            6550            6538     109.123E-03     110.437E-03
            6551            1007     101.960E-03     104.114E-03
            6551            1008     98.0372E-03     99.8501E-03
            6551            6538     109.123E-03     110.437E-03
            6551            6539     103.149E-03     104.641E-03
            6552             270     105.206E-03     106.114E-03
            6552             271     113.724E-03     112.559E-03
            6552            6538     109.123E-03     110.437E-03
            6552            6539     103.149E-03     104.641E-03
            6553            1008     98.0372E-03     99.8501E-03
            6553            1009     93.4230E-03     95.2671E-03
            6553            6539     103.149E-03     104.641E-03
            6553            6540     97.2678E-03     98.3771E-03
            6554             269     98.0808E-03     97.5482E-03
            6554             270     105.206E-03     106.114E-03
            6554            6539     103.149E-03     104.641E-03
            6554            6540     97.2678E-03     98.3771E-03
            6555            1009     93.4230E-03     95.2671E-03
            6555            1010     88.4965E-03     89.9492E-03
            6555            6540     97.2678E-03     98.3771E-03
            6555            6541     90.7151E-03     91.8125E-03
            6556             268     89.5743E-03     90.3939E-03
            6556             269     98.0808E-03     97.5482E-03
            6556            6540     97.2678E-03     98.3771E-03
            6556            6541     90.7151E-03     91.8125E-03
            6557            1010     88.4965E-03     89.9492E-03
            6557            1011     83.3634E-03     83.8592E-03
            6557            6541     90.7151E-03     91.8125E-03
            6557            6542     83.5400E-03     83.9489E-03
            6558             267     82.7391E-03     80.8505E-03
            6558             268     89.5743E-03     90.3939E-03
            6558            6541     90.7151E-03     91.8125E-03
            6558            6542     83.5400E-03     83.9489E-03
            6559            1011     83.3634E-03     83.8592E-03
            6559            1012     78.5703E-03     76.6885E-03
            6559            6542     83.5400E-03     83.9489E-03
            6559            6543     76.4366E-03     74.4666E-03
            6560             266     74.7630E-03     71.4440E-03
            6560             267     82.7391E-03     80.8505E-03
            6560            6542     83.5400E-03     83.9489E-03
            6560            6543     76.4366E-03     74.4666E-03
            6561            1012     78.5703E-03     76.6885E-03
            6561            1013     67.0910E-03     67.3572E-03
            6561            6543     76.4366E-03     74.4666E-03
            6561            6544     73.7465E-03     75.4428E-03
            6562             265     80.1335E-03     86.2530E-03
            6562             266     74.7630E-03     71.4440E-03
            6562            6543     76.4366E-03     74.4666E-03
            6562            6544     73.7465E-03     75.4428E-03
            6563            1013     67.0910E-03     67.3572E-03
            6563            1014     59.6229E-03     62.6970E-03
            6563            6544     73.7465E-03     75.4428E-03
            6563            6545     75.5655E-03     78.1386E-03
            6564             264     92.4898E-03     92.2906E-03
            6564             265     80.1335E-03     86.2530E-03
            6564            6544     73.7465E-03     75.4428E-03
            6564            6545     75.5655E-03     78.1386E-03
            6565            1014     59.6229E-03     62.6970E-03
            6565            1015     61.1941E-03     62.4461E-03
            6565            6545     75.5655E-03     78.1386E-03
            6565            6546     72.7993E-03     73.0016E-03
            6566             263     83.3083E-03     80.9276E-03
            6566             264     92.4898E-03     92.2906E-03
            6566            6545     75.5655E-03     78.1386E-03
            6566            6546     72.7993E-03     73.0016E-03
            6567            1015     61.1941E-03     62.4461E-03
            6567            1016     58.7124E-03     59.7327E-03
            6567            6546     72.7993E-03     73.0016E-03
            6567            6547     66.2935E-03     67.5901E-03
            6568             262     71.2802E-03     73.8484E-03
            6568             263     83.3083E-03     80.9276E-03
            6568            6546     72.7993E-03     73.0016E-03
            6568            6547     66.2935E-03     67.5901E-03
            6569            1016     58.7124E-03     59.7327E-03
            6569            1017     54.4672E-03     55.6234E-03
            6569            6547     66.2935E-03     67.5901E-03
            6569            6548     60.3935E-03     61.0669E-03
            6570             261     64.6326E-03     63.8087E-03
            6570             262     71.2802E-03     73.8484E-03
            6570            6547     66.2935E-03     67.5901E-03
            6570            6548     60.3935E-03     61.0669E-03
            6571            1017     54.4672E-03     55.6234E-03
            6571            1018     50.1125E-03     50.9718E-03
            6571            6548     60.3935E-03     61.0669E-03
            6571            6549     54.2315E-03     54.9459E-03
            6572             260     56.1268E-03     56.6920E-03
            6572             261     64.6326E-03     63.8087E-03
            6572            6548     60.3935E-03     61.0669E-03
            6572            6549     54.2315E-03     54.9459E-03
            6573            1018     50.1125E-03     50.9718E-03
            6573            1019     45.3767E-03     46.2311E-03
            6573            6549     54.2315E-03     54.9459E-03
            6573            6550     48.2486E-03     48.6653E-03
            6574             259     48.7197E-03     48.5011E-03
            6574             260     56.1268E-03     56.6920E-03
            6574            6549     54.2315E-03     54.9459E-03
            6574            6550     48.2486E-03     48.6653E-03
            6575            1019     45.3767E-03     46.2311E-03
            6575            1020     40.6315E-03     41.2616E-03
            6575            6550     48.2486E-03     48.6653E-03
            6575            6551     41.9817E-03     42.2901E-03
            6576             258     40.7070E-03     40.6812E-03
            6576             259     48.7197E-03     48.5011E-03
            6576            6550     48.2486E-03     48.6653E-03
            6576            6551     41.9817E-03     42.2901E-03
            6577            1020     40.6315E-03     41.2616E-03
            6577            1021     35.6684E-03     36.2001E-03
            6577            6551     41.9817E-03     42.2901E-03
            6577            6552     35.5582E-03     35.5641E-03
            6578             257     32.8896E-03     32.2668E-03
            6578             258     40.7070E-03     40.6812E-03
            6578            6551     41.9817E-03     42.2901E-03
            6578            6552     35.5582E-03     35.5641E-03
            6579            1021     35.6684E-03     36.2001E-03
            6579            1022     31.4188E-03     31.1266E-03
            6579            6552     35.5582E-03     35.5641E-03
            6579            6553     28.7489E-03     28.5884E-03
            6580             256     24.0329E-03     23.7227E-03
            6580             257     32.8896E-03     32.2668E-03
            6580            6552     35.5582E-03     35.5641E-03
            6580            6553     28.7489E-03     28.5884E-03
            6581            1022     31.4188E-03     31.1266E-03
            6581            1023     28.6752E-03     26.2158E-03
            6581            6553     28.7489E-03     28.5884E-03
            6581            6554     23.2478E-03     21.7173E-03
            6582             255     16.2688E-03     15.3652E-03
            6582             256     24.0329E-03     23.7227E-03
            6582            6553     28.7489E-03     28.5884E-03
            6582            6554     23.2478E-03     21.7173E-03
            6583            1023     28.6752E-03     26.2158E-03
            6583            1024     21.1852E-03     20.9279E-03
            6583            6554     23.2478E-03     21.7173E-03
            6583            6555     20.7609E-03     21.8894E-03
            6584             254     20.3108E-03     23.2774E-03
            6584             255     16.2688E-03     15.3652E-03
            6584            6554     23.2478E-03     21.7173E-03
            6584            6555     20.7609E-03     21.8894E-03
            6585            1024     21.1852E-03     20.9279E-03
            6585            1025     15.9943E-03     18.2584E-03
            6585            6555     20.7609E-03     21.8894E-03
            6585            6556     18.8675E-03     21.0077E-03
            6586             253     24.5828E-03     25.6391E-03
            6586             254     20.3108E-03     23.2774E-03
            6586            6555     20.7609E-03     21.8894E-03
            6586            6556     18.8675E-03     21.0077E-03
            6587            1025     15.9943E-03     18.2584E-03
            6587            1026     17.2829E-03     17.5094E-03
            6587            6556     18.8675E-03     21.0077E-03
            6587            6557     13.5234E-03     13.5824E-03
            6588             252     14.2356E-03     12.5451E-03
            6588             253     24.5828E-03     25.6391E-03
            6588            6556     18.8675E-03     21.0077E-03
            6588            6557     13.5234E-03     13.5824E-03
            6589            1026     17.2829E-03     17.5094E-03
            6589            1027     16.2109E-03     14.4476E-03
            6589            6557     13.5234E-03     13.5824E-03
            6589            6558     9.83655E-03     11.1585E-03
            6590             251     7.29373E-03     12.1663E-03
            6590             252     14.2356E-03     12.5451E-03
            6590            6557     13.5234E-03     13.5824E-03
            6590            6558     9.83655E-03     11.1585E-03
            6591              38     7.99197E-03     6.65555E-03
            6591             948     5.66927E-03     6.55470E-03
            6591            1027     16.2109E-03     14.4476E-03
            6591            6558     9.83655E-03     11.1585E-03
            6592              15     4.87554E-03     8.45815E-03
            6592             251     7.29373E-03     12.1663E-03
            6592             948     5.66927E-03     6.55470E-03
            6592            6558     9.83655E-03     11.1585E-03
            6593              12     24.5732E-03     24.3805E-03
            6593             195     1.26273E-03     1.22606E-03
            6593             246     23.0208E-03     22.8414E-03
            6593            6559     1.24506E-03     1.21331E-03
            6594             194     1.26512E-03     1.25198E-03
            6594             195     1.26273E-03     1.22606E-03
            6594            6559     1.24506E-03     1.21331E-03
            6594            6560     1.24458E-03     1.22913E-03
            6595             193     1.25270E-03     1.24822E-03
            6595             194     1.26512E-03     1.25198E-03
            6595            6560     1.24458E-03     1.22913E-03
            6595            6561     1.21194E-03     1.21253E-03
            6596             192     1.25977E-03     1.24672E-03
            6596             193     1.25270E-03     1.24822E-03
            6596            6561     1.21194E-03     1.21253E-03
            6596            6562     1.21034E-03     1.19353E-03
            6597             191     1.26308E-03     1.24706E-03
            6597             192     1.25977E-03     1.24672E-03
            6597            6562     1.21034E-03     1.19353E-03
            6597            6563     1.20933E-03     1.19356E-03
            6598             190     1.25844E-03     1.23630E-03
            6598             191     1.26308E-03     1.24706E-03
            6598            6563     1.20933E-03     1.19356E-03
            6598            6564     1.20090E-03     1.18065E-03
            6599              11     1.24858E-03     1.22942E-03
            6599             190     1.25844E-03     1.23630E-03
            6599            1029     1.19163E-03     1.17322E-03
            6599            6564     1.20090E-03     1.18065E-03
            6600             246     23.0208E-03     22.8414E-03
            6600             247     20.0644E-03     19.9763E-03
            6600            6559     1.24506E-03     1.21331E-03
            6600            6565     1.21157E-03     1.17673E-03
            6601            6559     1.24506E-03     1.21331E-03
            6601            6560     1.24458E-03     1.22913E-03
            6601            6565     1.21157E-03     1.17673E-03
            6601            6566     1.19025E-03     1.14196E-03
            6602            6560     1.24458E-03     1.22913E-03
            6602            6561     1.21194E-03     1.21253E-03
            6602            6566     1.19025E-03     1.14196E-03
            6602            6567     1.09121E-03     1.11103E-03
            6603            6561     1.21194E-03     1.21253E-03
            6603            6562     1.21034E-03     1.19353E-03
            6603            6567     1.09121E-03     1.11103E-03
            6603            6568     1.06423E-03     1.05730E-03
            6604            6562     1.21034E-03     1.19353E-03
            6604            6563     1.20933E-03     1.19356E-03
            6604            6568     1.06423E-03     1.05730E-03
            6604            6569     1.04501E-03     1.03565E-03
            6605            6563     1.20933E-03     1.19356E-03
            6605            6564     1.20090E-03     1.18065E-03
            6605            6569     1.04501E-03     1.03565E-03
            6605            6570     1.03362E-03     1.01919E-03
            6606            1029     1.19163E-03     1.17322E-03
            6606            1030     1.02516E-03     1.01091E-03
            6606            6564     1.20090E-03     1.18065E-03
            6606            6570     1.03362E-03     1.01919E-03
            6607             247     20.0644E-03     19.9763E-03
            6607             248     15.6136E-03     15.6318E-03
            6607            6565     1.21157E-03     1.17673E-03
            6607            6571     1.15928E-03     1.12701E-03
            6608            6565     1.21157E-03     1.17673E-03
            6608            6566     1.19025E-03     1.14196E-03
            6608            6571     1.15928E-03     1.12701E-03
            6608            6572     1.10499E-03     1.00747E-03
            6609            6566     1.19025E-03     1.14196E-03
            6609            6567     1.09121E-03     1.11103E-03
            6609            6572     1.10499E-03     1.00747E-03
            6609            6573     910.024E-06     956.668E-06
            6610            6567     1.09121E-03     1.11103E-03
            6610            6568     1.06423E-03     1.05730E-03
            6610            6573     910.024E-06     956.668E-06
            6610            6574     848.675E-06     840.534E-06
            6611            6568     1.06423E-03     1.05730E-03
            6611            6569     1.04501E-03     1.03565E-03
            6611            6574     848.675E-06     840.534E-06
            6611            6575     786.730E-06     797.125E-06
            6612            6569     1.04501E-03     1.03565E-03
            6612            6570     1.03362E-03     1.01919E-03
            6612            6575     786.730E-06     797.125E-06
            6612            6576     750.161E-06     768.366E-06
            6613            1030     1.02516E-03     1.01091E-03
            6613            1031     745.703E-06     755.611E-06
            6613            6570     1.03362E-03     1.01919E-03
            6613            6576     750.161E-06     768.366E-06
            6614             248     15.6136E-03     15.6318E-03
            6614             249     10.2588E-03     10.3694E-03
            6614            6571     1.15928E-03     1.12701E-03
            6614            6577     1.17267E-03     1.16877E-03
            6615            6571     1.15928E-03     1.12701E-03
            6615            6572     1.10499E-03     1.00747E-03
            6615            6577     1.17267E-03     1.16877E-03
            6615            6578     1.06726E-03     963.708E-06
            6616            6572     1.10499E-03     1.00747E-03
            6616            6573     910.024E-06     956.668E-06
            6616            6578     1.06726E-03     963.708E-06
            6616            6579     725.044E-06     819.612E-06
            6617            6573     910.024E-06     956.668E-06
            6617            6574     848.675E-06     840.534E-06
            6617            6579     725.044E-06     819.612E-06
            6617            6580     594.298E-06     551.601E-06
            6618            6574     848.675E-06     840.534E-06
            6618            6575     786.730E-06     797.125E-06
            6618            6580     594.298E-06     551.601E-06
            6618            6581     481.522E-06     463.262E-06
            6619            6575     786.730E-06     797.125E-06
            6619            6576     750.161E-06     768.366E-06
            6619            6581     481.522E-06     463.262E-06
            6619            6582     428.578E-06     468.565E-06
            6620            1031     745.703E-06     755.611E-06
            6620            1032     415.520E-06     483.704E-06
            6620            6576     750.161E-06     768.366E-06
            6620            6582     428.578E-06     468.565E-06
            6621             249     10.2588E-03     10.3694E-03
            6621             250     6.85032E-03     8.78999E-03
            6621            6577     1.17267E-03     1.16877E-03
            6621            6583     1.43961E-03     1.44017E-03
            6622            6577     1.17267E-03     1.16877E-03
            6622            6578     1.06726E-03     963.708E-06
            6622            6583     1.43961E-03     1.44017E-03
            6622            6584     1.18999E-03     1.10962E-03
            6623            6578     1.06726E-03     963.708E-06
            6623            6579     725.044E-06     819.612E-06
            6623            6584     1.18999E-03     1.10962E-03
            6623            6585     750.463E-06     855.553E-06
            6624            6579     725.044E-06     819.612E-06
            6624            6580     594.298E-06     551.601E-06
            6624            6585     750.463E-06     855.553E-06
            6624            6586     543.870E-06     499.606E-06
            6625            6580     594.298E-06     551.601E-06
            6625            6581     481.522E-06     463.262E-06
            6625            6586     543.870E-06     499.606E-06
            6625            6587     387.325E-06     357.941E-06
            6626            6581     481.522E-06     463.262E-06
            6626            6582     428.578E-06     468.565E-06
            6626            6587     387.325E-06     357.941E-06
            6626            6588     366.886E-06     431.338E-06
            6627            1032     415.520E-06     483.704E-06
            6627            1033     367.715E-06     524.067E-06
            6627            6582     428.578E-06     468.565E-06
            6627            6588     366.886E-06     431.338E-06
            6628              15     4.87554E-03     8.45815E-03
            6628             250     6.85032E-03     8.78999E-03
            6628             949     1.49944E-03     1.52629E-03
            6628            6583     1.43961E-03     1.44017E-03
            6629             949     1.49944E-03     1.52629E-03
            6629             950     1.17882E-03     1.13595E-03
            6629            6583     1.43961E-03     1.44017E-03
            6629            6584     1.18999E-03     1.10962E-03
            6630             950     1.17882E-03     1.13595E-03
            6630             951     804.386E-06     858.428E-06
            6630            6584     1.18999E-03     1.10962E-03
            6630            6585     750.463E-06     855.553E-06
            6631             951     804.386E-06     858.428E-06
            6631             952     565.285E-06     538.913E-06
            6631            6585     750.463E-06     855.553E-06
            6631            6586     543.870E-06     499.606E-06
            6632             952     565.285E-06     538.913E-06
            6632             953     362.567E-06     348.872E-06
            6632            6586     543.870E-06     499.606E-06
            6632            6587     387.325E-06     357.941E-06
            6633             953     362.567E-06     348.872E-06
            6633             954     344.888E-06     439.307E-06
            6633            6587     387.325E-06     357.941E-06
            6633            6588     366.886E-06     431.338E-06
            6634              41     387.561E-06     595.394E-06
            6634             954     344.888E-06     439.307E-06
            6634            1033     367.715E-06     524.067E-06
            6634            6588     366.886E-06     431.338E-06


  Minimum                            273.311E-06     340.291E-06
      At Element                            2144            6522
            Node                               4            6524

  Maximum                            274.503E-03     267.556E-03
      At Element                            2194            2194
            Node                             549             549

           Total                     1.36155E+03     1.38984E+03


Field Output reported at element nodes for region: B737-1.Region_2
   Computation algorithm: EXTRAPOLATE_COMPUTE_AVERAGE
   Averaged at nodes
   Averaging regions: ODB_REGIONS

   Element Label      Node Label         S.Mises         S.Mises
                                          @Loc 1          @Loc 2
-----------------------------------------------------------------
            1732              23     15.4726E-03     15.5463E-03
            1732             471     16.9457E-03     16.9932E-03
            1732             531     27.0825E-03     27.5365E-03
            1732            2480     31.6011E-03     31.7608E-03
            1733             471     16.9457E-03     16.9932E-03
            1733             472     18.9612E-03     18.8936E-03
            1733            2480     31.6011E-03     31.7608E-03
            1733            2481     37.3872E-03     37.1502E-03
            1734             472     18.9612E-03     18.8936E-03
            1734             473     19.9782E-03     19.8518E-03
            1734            2481     37.3872E-03     37.1502E-03
            1734            2482     39.5282E-03     39.1246E-03
            1735             473     19.9782E-03     19.8518E-03
            1735             474     20.5004E-03     20.3574E-03
            1735            2482     39.5282E-03     39.1246E-03
            1735            2483     40.4478E-03     39.9659E-03
            1736             474     20.5004E-03     20.3574E-03
            1736             475     20.1016E-03     19.9398E-03
            1736            2483     40.4478E-03     39.9659E-03
            1736            2484     39.7328E-03     39.2156E-03
            1737             475     20.1016E-03     19.9398E-03
            1737             476     19.2722E-03     19.1045E-03
            1737            2484     39.7328E-03     39.2156E-03
            1737            2485     37.9692E-03     37.3836E-03
            1738             476     19.2722E-03     19.1045E-03
            1738             477     17.5494E-03     17.6128E-03
            1738            2485     37.9692E-03     37.3836E-03
            1738            2486     32.5657E-03     32.6436E-03
            1739               3     16.2096E-03     16.5378E-03
            1739             155     28.1647E-03     28.9535E-03
            1739             477     17.5494E-03     17.6128E-03
            1739            2486     32.5657E-03     32.6436E-03
            1740             530     24.2393E-03     24.8114E-03
            1740             531     27.0825E-03     27.5365E-03
            1740            2480     31.6011E-03     31.7608E-03
            1740            2487     30.0728E-03     30.2648E-03
            1741            2480     31.6011E-03     31.7608E-03
            1741            2481     37.3872E-03     37.1502E-03
            1741            2487     30.0728E-03     30.2648E-03
            1741            2488     38.3419E-03     38.0278E-03
            1742            2481     37.3872E-03     37.1502E-03
            1742            2482     39.5282E-03     39.1246E-03
            1742            2488     38.3419E-03     38.0278E-03
            1742            2489     41.5335E-03     41.0083E-03
            1743            2482     39.5282E-03     39.1246E-03
            1743            2483     40.4478E-03     39.9659E-03
            1743            2489     41.5335E-03     41.0083E-03
            1743            2490     42.2939E-03     41.6733E-03
            1744            2483     40.4478E-03     39.9659E-03
            1744            2484     39.7328E-03     39.2156E-03
            1744            2490     42.2939E-03     41.6733E-03
            1744            2491     41.6243E-03     40.9760E-03
            1745            2484     39.7328E-03     39.2156E-03
            1745            2485     37.9692E-03     37.3836E-03
            1745            2491     41.6243E-03     40.9760E-03
            1745            2492     38.5443E-03     38.1049E-03
            1746            2485     37.9692E-03     37.3836E-03
            1746            2486     32.5657E-03     32.6436E-03
            1746            2492     38.5443E-03     38.1049E-03
            1746            2493     30.2935E-03     30.6143E-03
            1747             154     24.4487E-03     25.3034E-03
            1747             155     28.1647E-03     28.9535E-03
            1747            2486     32.5657E-03     32.6436E-03
            1747            2493     30.2935E-03     30.6143E-03
            1748             529     25.4648E-03     25.5805E-03
            1748             530     24.2393E-03     24.8114E-03
            1748            2487     30.0728E-03     30.2648E-03
            1748            2494     30.4085E-03     30.4286E-03
            1749            2487     30.0728E-03     30.2648E-03
            1749            2488     38.3419E-03     38.0278E-03
            1749            2494     30.4085E-03     30.4286E-03
            1749            2495     38.5373E-03     38.3173E-03
            1750            2488     38.3419E-03     38.0278E-03
            1750            2489     41.5335E-03     41.0083E-03
            1750            2495     38.5373E-03     38.3173E-03
            1750            2496     42.8087E-03     42.4102E-03
            1751            2489     41.5335E-03     41.0083E-03
            1751            2490     42.2939E-03     41.6733E-03
            1751            2496     42.8087E-03     42.4102E-03
            1751            2497     43.8781E-03     43.4315E-03
            1752            2490     42.2939E-03     41.6733E-03
            1752            2491     41.6243E-03     40.9760E-03
            1752            2497     43.8781E-03     43.4315E-03
            1752            2498     42.6791E-03     42.3608E-03
            1753            2491     41.6243E-03     40.9760E-03
            1753            2492     38.5443E-03     38.1049E-03
            1753            2498     42.6791E-03     42.3608E-03
            1753            2499     38.1914E-03     38.2945E-03
            1754            2492     38.5443E-03     38.1049E-03
            1754            2493     30.2935E-03     30.6143E-03
            1754            2499     38.1914E-03     38.2945E-03
            1754            2500     29.8395E-03     30.3548E-03
            1755             153     24.7929E-03     25.4415E-03
            1755             154     24.4487E-03     25.3034E-03
            1755            2493     30.2935E-03     30.6143E-03
            1755            2500     29.8395E-03     30.3548E-03
            1756             528     29.1274E-03     28.8905E-03
            1756             529     25.4648E-03     25.5805E-03
            1756            2494     30.4085E-03     30.4286E-03
            1756            2501     32.8781E-03     32.7095E-03
            1757            2494     30.4085E-03     30.4286E-03
            1757            2495     38.5373E-03     38.3173E-03
            1757            2501     32.8781E-03     32.7095E-03
            1757            2502     39.2614E-03     39.1164E-03
            1758            2495     38.5373E-03     38.3173E-03
            1758            2496     42.8087E-03     42.4102E-03
            1758            2502     39.2614E-03     39.1164E-03
            1758            2503     43.2964E-03     43.1464E-03
            1759            2496     42.8087E-03     42.4102E-03
            1759            2497     43.8781E-03     43.4315E-03
            1759            2503     43.2964E-03     43.1464E-03
            1759            2504     44.6102E-03     44.5593E-03
            1760            2497     43.8781E-03     43.4315E-03
            1760            2498     42.6791E-03     42.3608E-03
            1760            2504     44.6102E-03     44.5593E-03
            1760            2505     42.9344E-03     43.0350E-03
            1761            2498     42.6791E-03     42.3608E-03
            1761            2499     38.1914E-03     38.2945E-03
            1761            2505     42.9344E-03     43.0350E-03
            1761            2506     38.5398E-03     38.8523E-03
            1762            2499     38.1914E-03     38.2945E-03
            1762            2500     29.8395E-03     30.3548E-03
            1762            2506     38.5398E-03     38.8523E-03
            1762            2507     31.8087E-03     32.1095E-03
            1763             152     27.8848E-03     28.0543E-03
            1763             153     24.7929E-03     25.4415E-03
            1763            2500     29.8395E-03     30.3548E-03
            1763            2507     31.8087E-03     32.1095E-03
            1764             527     33.8381E-03     33.4049E-03
            1764             528     29.1274E-03     28.8905E-03
            1764            2501     32.8781E-03     32.7095E-03
            1764            2508     36.2930E-03     35.9479E-03
            1765            2501     32.8781E-03     32.7095E-03
            1765            2502     39.2614E-03     39.1164E-03
            1765            2508     36.2930E-03     35.9479E-03
            1765            2509     40.7882E-03     40.7295E-03
            1766            2502     39.2614E-03     39.1164E-03
            1766            2503     43.2964E-03     43.1464E-03
            1766            2509     40.7882E-03     40.7295E-03
            1766            2510     43.4309E-03     43.6980E-03
            1767            2503     43.2964E-03     43.1464E-03
            1767            2504     44.6102E-03     44.5593E-03
            1767            2510     43.4309E-03     43.6980E-03
            1767            2511     43.9375E-03     44.3370E-03
            1768            2504     44.6102E-03     44.5593E-03
            1768            2505     42.9344E-03     43.0350E-03
            1768            2511     43.9375E-03     44.3370E-03
            1768            2512     42.9797E-03     43.3798E-03
            1769            2505     42.9344E-03     43.0350E-03
            1769            2506     38.5398E-03     38.8523E-03
            1769            2512     42.9797E-03     43.3798E-03
            1769            2513     39.8007E-03     40.1193E-03
            1770            2506     38.5398E-03     38.8523E-03
            1770            2507     31.8087E-03     32.1095E-03
            1770            2513     39.8007E-03     40.1193E-03
            1770            2514     34.7324E-03     34.9198E-03
            1771             151     31.9810E-03     32.1144E-03
            1771             152     27.8848E-03     28.0543E-03
            1771            2507     31.8087E-03     32.1095E-03
            1771            2514     34.7324E-03     34.9198E-03
            1772             526     40.5621E-03     40.3017E-03
            1772             527     33.8381E-03     33.4049E-03
            1772            2508     36.2930E-03     35.9479E-03
            1772            2515     41.6067E-03     41.4805E-03
            1773            2508     36.2930E-03     35.9479E-03
            1773            2509     40.7882E-03     40.7295E-03
            1773            2515     41.6067E-03     41.4805E-03
            1773            2516     42.5402E-03     42.8399E-03
            1774            2509     40.7882E-03     40.7295E-03
            1774            2510     43.4309E-03     43.6980E-03
            1774            2516     42.5402E-03     42.8399E-03
            1774            2517     42.2647E-03     42.8452E-03
            1775            2510     43.4309E-03     43.6980E-03
            1775            2511     43.9375E-03     44.3370E-03
            1775            2517     42.2647E-03     42.8452E-03
            1775            2518     41.9666E-03     42.5775E-03
            1776            2511     43.9375E-03     44.3370E-03
            1776            2512     42.9797E-03     43.3798E-03
            1776            2518     41.9666E-03     42.5775E-03
            1776            2519     41.7413E-03     42.3836E-03
            1777            2512     42.9797E-03     43.3798E-03
            1777            2513     39.8007E-03     40.1193E-03
            1777            2519     41.7413E-03     42.3836E-03
            1777            2520     41.4131E-03     41.8056E-03
            1778            2513     39.8007E-03     40.1193E-03
            1778            2514     34.7324E-03     34.9198E-03
            1778            2520     41.4131E-03     41.8056E-03
            1778            2521     39.7911E-03     39.8357E-03
            1779             150     38.4052E-03     38.3421E-03
            1779             151     31.9810E-03     32.1144E-03
            1779            2514     34.7324E-03     34.9198E-03
            1779            2521     39.7911E-03     39.8357E-03
            1780             525     50.6443E-03     49.3185E-03
            1780             526     40.5621E-03     40.3017E-03
            1780            2515     41.6067E-03     41.4805E-03
            1780            2522     47.5131E-03     46.8207E-03
            1781            2515     41.6067E-03     41.4805E-03
            1781            2516     42.5402E-03     42.8399E-03
            1781            2522     47.5131E-03     46.8207E-03
            1781            2523     42.1013E-03     42.1722E-03
            1782            2516     42.5402E-03     42.8399E-03
            1782            2517     42.2647E-03     42.8452E-03
            1782            2523     42.1013E-03     42.1722E-03
            1782            2524     39.4407E-03     39.7404E-03
            1783            2517     42.2647E-03     42.8452E-03
            1783            2518     41.9666E-03     42.5775E-03
            1783            2524     39.4407E-03     39.7404E-03
            1783            2525     38.8765E-03     39.3434E-03
            1784            2518     41.9666E-03     42.5775E-03
            1784            2519     41.7413E-03     42.3836E-03
            1784            2525     38.8765E-03     39.3434E-03
            1784            2526     38.7504E-03     39.2738E-03
            1785            2519     41.7413E-03     42.3836E-03
            1785            2520     41.4131E-03     41.8056E-03
            1785            2526     38.7504E-03     39.2738E-03
            1785            2527     40.6973E-03     41.0961E-03
            1786            2520     41.4131E-03     41.8056E-03
            1786            2521     39.7911E-03     39.8357E-03
            1786            2527     40.6973E-03     41.0961E-03
            1786            2528     45.1732E-03     45.0650E-03
            1787             149     47.7603E-03     47.2577E-03
            1787             150     38.4052E-03     38.3421E-03
            1787            2521     39.7911E-03     39.8357E-03
            1787            2528     45.1732E-03     45.0650E-03
            1788             524     42.6493E-03     40.1638E-03
            1788             525     50.6443E-03     49.3185E-03
            1788            2522     47.5131E-03     46.8207E-03
            1788            2529     41.7760E-03     39.7271E-03
            1789            2522     47.5131E-03     46.8207E-03
            1789            2523     42.1013E-03     42.1722E-03
            1789            2529     41.7760E-03     39.7271E-03
            1789            2530     39.8019E-03     38.5203E-03
            1790            2523     42.1013E-03     42.1722E-03
            1790            2524     39.4407E-03     39.7404E-03
            1790            2530     39.8019E-03     38.5203E-03
            1790            2531     38.4460E-03     37.7789E-03
            1791            2524     39.4407E-03     39.7404E-03
            1791            2525     38.8765E-03     39.3434E-03
            1791            2531     38.4460E-03     37.7789E-03
            1791            2532     38.0546E-03     37.6231E-03
            1792            2525     38.8765E-03     39.3434E-03
            1792            2526     38.7504E-03     39.2738E-03
            1792            2532     38.0546E-03     37.6231E-03
            1792            2533     37.7190E-03     37.1353E-03
            1793            2526     38.7504E-03     39.2738E-03
            1793            2527     40.6973E-03     41.0961E-03
            1793            2533     37.7190E-03     37.1353E-03
            1793            2534     38.4372E-03     37.2337E-03
            1794            2527     40.6973E-03     41.0961E-03
            1794            2528     45.1732E-03     45.0650E-03
            1794            2534     38.4372E-03     37.2337E-03
            1794            2535     39.6547E-03     37.6390E-03
            1795             148     39.9546E-03     37.6425E-03
            1795             149     47.7603E-03     47.2577E-03
            1795            2528     45.1732E-03     45.0650E-03
            1795            2535     39.6547E-03     37.6390E-03
            1796             523     32.8646E-03     32.8952E-03
            1796             524     42.6493E-03     40.1638E-03
            1796            2529     41.7760E-03     39.7271E-03
            1796            2536     36.3366E-03     35.5671E-03
            1797            2529     41.7760E-03     39.7271E-03
            1797            2530     39.8019E-03     38.5203E-03
            1797            2536     36.3366E-03     35.5671E-03
            1797            2537     39.8388E-03     38.2056E-03
            1798            2530     39.8019E-03     38.5203E-03
            1798            2531     38.4460E-03     37.7789E-03
            1798            2537     39.8388E-03     38.2056E-03
            1798            2538     39.5947E-03     37.9124E-03
            1799            2531     38.4460E-03     37.7789E-03
            1799            2532     38.0546E-03     37.6231E-03
            1799            2538     39.5947E-03     37.9124E-03
            1799            2539     39.0918E-03     37.3534E-03
            1800            2532     38.0546E-03     37.6231E-03
            1800            2533     37.7190E-03     37.1353E-03
            1800            2539     39.0918E-03     37.3534E-03
            1800            2540     38.6780E-03     36.6726E-03
            1801            2533     37.7190E-03     37.1353E-03
            1801            2534     38.4372E-03     37.2337E-03
            1801            2540     38.6780E-03     36.6726E-03
            1801            2541     38.2170E-03     35.7994E-03
            1802            2534     38.4372E-03     37.2337E-03
            1802            2535     39.6547E-03     37.6390E-03
            1802            2541     38.2170E-03     35.7994E-03
            1802            2542     33.5764E-03     32.1038E-03
            1803             147     29.2115E-03     28.8997E-03
            1803             148     39.9546E-03     37.6425E-03
            1803            2535     39.6547E-03     37.6390E-03
            1803            2542     33.5764E-03     32.1038E-03
            1804             522     40.4542E-03     41.7336E-03
            1804             523     32.8646E-03     32.8952E-03
            1804            2536     36.3366E-03     35.5671E-03
            1804            2543     41.2484E-03     42.0524E-03
            1805            2536     36.3366E-03     35.5671E-03
            1805            2537     39.8388E-03     38.2056E-03
            1805            2543     41.2484E-03     42.0524E-03
            1805            2544     41.8536E-03     41.2898E-03
            1806            2537     39.8388E-03     38.2056E-03
            1806            2538     39.5947E-03     37.9124E-03
            1806            2544     41.8536E-03     41.2898E-03
            1806            2545     40.8289E-03     39.0120E-03
            1807            2538     39.5947E-03     37.9124E-03
            1807            2539     39.0918E-03     37.3534E-03
            1807            2545     40.8289E-03     39.0120E-03
            1807            2546     39.6039E-03     37.3278E-03
            1808            2539     39.0918E-03     37.3534E-03
            1808            2540     38.6780E-03     36.6726E-03
            1808            2546     39.6039E-03     37.3278E-03
            1808            2547     39.4011E-03     37.1427E-03
            1809            2540     38.6780E-03     36.6726E-03
            1809            2541     38.2170E-03     35.7994E-03
            1809            2547     39.4011E-03     37.1427E-03
            1809            2548     38.9809E-03     37.8683E-03
            1810            2541     38.2170E-03     35.7994E-03
            1810            2542     33.5764E-03     32.1038E-03
            1810            2548     38.9809E-03     37.8683E-03
            1810            2549     36.5548E-03     37.4270E-03
            1811             146     34.7355E-03     36.5628E-03
            1811             147     29.2115E-03     28.8997E-03
            1811            2542     33.5764E-03     32.1038E-03
            1811            2549     36.5548E-03     37.4270E-03
            1812             521     47.0186E-03     47.0588E-03
            1812             522     40.4542E-03     41.7336E-03
            1812            2543     41.2484E-03     42.0524E-03
            1812            2550     45.7032E-03     46.0340E-03
            1813            2543     41.2484E-03     42.0524E-03
            1813            2544     41.8536E-03     41.2898E-03
            1813            2550     45.7032E-03     46.0340E-03
            1813            2551     43.7127E-03     43.6895E-03
            1814            2544     41.8536E-03     41.2898E-03
            1814            2545     40.8289E-03     39.0120E-03
            1814            2551     43.7127E-03     43.6895E-03
            1814            2552     42.1147E-03     40.9096E-03
            1815            2545     40.8289E-03     39.0120E-03
            1815            2546     39.6039E-03     37.3278E-03
            1815            2552     42.1147E-03     40.9096E-03
            1815            2553     40.7036E-03     38.8606E-03
            1816            2546     39.6039E-03     37.3278E-03
            1816            2547     39.4011E-03     37.1427E-03
            1816            2553     40.7036E-03     38.8606E-03
            1816            2554     40.1269E-03     38.7322E-03
            1817            2547     39.4011E-03     37.1427E-03
            1817            2548     38.9809E-03     37.8683E-03
            1817            2554     40.1269E-03     38.7322E-03
            1817            2555     39.7424E-03     39.7467E-03
            1818            2548     38.9809E-03     37.8683E-03
            1818            2549     36.5548E-03     37.4270E-03
            1818            2555     39.7424E-03     39.7467E-03
            1818            2556     40.1151E-03     40.6846E-03
            1819             145     40.7838E-03     41.0687E-03
            1819             146     34.7355E-03     36.5628E-03
            1819            2549     36.5548E-03     37.4270E-03
            1819            2556     40.1151E-03     40.6846E-03
            1820             520     53.0127E-03     52.6792E-03
            1820             521     47.0186E-03     47.0588E-03
            1820            2550     45.7032E-03     46.0340E-03
            1820            2557     50.2967E-03     50.1604E-03
            1821            2550     45.7032E-03     46.0340E-03
            1821            2551     43.7127E-03     43.6895E-03
            1821            2557     50.2967E-03     50.1604E-03
            1821            2558     45.9282E-03     45.8409E-03
            1822            2551     43.7127E-03     43.6895E-03
            1822            2552     42.1147E-03     40.9096E-03
            1822            2558     45.9282E-03     45.8409E-03
            1822            2559     43.1847E-03     42.6004E-03
            1823            2552     42.1147E-03     40.9096E-03
            1823            2553     40.7036E-03     38.8606E-03
            1823            2559     43.1847E-03     42.6004E-03
            1823            2560     41.4581E-03     40.5238E-03
            1824            2553     40.7036E-03     38.8606E-03
            1824            2554     40.1269E-03     38.7322E-03
            1824            2560     41.4581E-03     40.5238E-03
            1824            2561     40.6986E-03     40.2058E-03
            1825            2554     40.1269E-03     38.7322E-03
            1825            2555     39.7424E-03     39.7467E-03
            1825            2561     40.6986E-03     40.2058E-03
            1825            2562     41.2697E-03     41.4469E-03
            1826            2555     39.7424E-03     39.7467E-03
            1826            2556     40.1151E-03     40.6846E-03
            1826            2562     41.2697E-03     41.4469E-03
            1826            2563     44.0928E-03     44.2960E-03
            1827             144     46.2212E-03     46.2228E-03
            1827             145     40.7838E-03     41.0687E-03
            1827            2556     40.1151E-03     40.6846E-03
            1827            2563     44.0928E-03     44.2960E-03
            1828             519     58.9497E-03     58.1656E-03
            1828             520     53.0127E-03     52.6792E-03
            1828            2557     50.2967E-03     50.1604E-03
            1828            2564     55.0409E-03     54.5986E-03
            1829            2557     50.2967E-03     50.1604E-03
            1829            2558     45.9282E-03     45.8409E-03
            1829            2564     55.0409E-03     54.5986E-03
            1829            2565     48.5391E-03     48.4875E-03
            1830            2558     45.9282E-03     45.8409E-03
            1830            2559     43.1847E-03     42.6004E-03
            1830            2565     48.5391E-03     48.4875E-03
            1830            2566     44.2418E-03     44.1801E-03
            1831            2559     43.1847E-03     42.6004E-03
            1831            2560     41.4581E-03     40.5238E-03
            1831            2566     44.2418E-03     44.1801E-03
            1831            2567     41.7938E-03     41.7346E-03
            1832            2560     41.4581E-03     40.5238E-03
            1832            2561     40.6986E-03     40.2058E-03
            1832            2567     41.7938E-03     41.7346E-03
            1832            2568     41.3916E-03     41.5572E-03
            1833            2561     40.6986E-03     40.2058E-03
            1833            2562     41.2697E-03     41.4469E-03
            1833            2568     41.3916E-03     41.5572E-03
            1833            2569     43.3528E-03     43.6673E-03
            1834            2562     41.2697E-03     41.4469E-03
            1834            2563     44.0928E-03     44.2960E-03
            1834            2569     43.3528E-03     43.6673E-03
            1834            2570     48.3644E-03     48.2829E-03
            1835             143     51.7564E-03     51.2934E-03
            1835             144     46.2212E-03     46.2228E-03
            1835            2563     44.0928E-03     44.2960E-03
            1835            2570     48.3644E-03     48.2829E-03
            1836             518     64.9275E-03     64.0547E-03
            1836             519     58.9497E-03     58.1656E-03
            1836            2564     55.0409E-03     54.5986E-03
            1836            2571     59.9498E-03     59.4123E-03
            1837            2564     55.0409E-03     54.5986E-03
            1837            2565     48.5391E-03     48.4875E-03
            1837            2571     59.9498E-03     59.4123E-03
            1837            2572     51.1953E-03     51.2587E-03
            1838            2565     48.5391E-03     48.4875E-03
            1838            2566     44.2418E-03     44.1801E-03
            1838            2572     51.1953E-03     51.2587E-03
            1838            2573     45.2090E-03     45.7808E-03
            1839            2566     44.2418E-03     44.1801E-03
            1839            2567     41.7938E-03     41.7346E-03
            1839            2573     45.2090E-03     45.7808E-03
            1839            2574     42.1367E-03     43.0130E-03
            1840            2567     41.7938E-03     41.7346E-03
            1840            2568     41.3916E-03     41.5572E-03
            1840            2574     42.1367E-03     43.0130E-03
            1840            2575     42.0172E-03     42.8350E-03
            1841            2568     41.3916E-03     41.5572E-03
            1841            2569     43.3528E-03     43.6673E-03
            1841            2575     42.0172E-03     42.8350E-03
            1841            2576     45.5783E-03     46.0334E-03
            1842            2569     43.3528E-03     43.6673E-03
            1842            2570     48.3644E-03     48.2829E-03
            1842            2576     45.5783E-03     46.0334E-03
            1842            2577     52.8982E-03     52.7040E-03
            1843             142     57.4002E-03     56.7996E-03
            1843             143     51.7564E-03     51.2934E-03
            1843            2570     48.3644E-03     48.2829E-03
            1843            2577     52.8982E-03     52.7040E-03
            1844             517     70.8070E-03     69.8079E-03
            1844             518     64.9275E-03     64.0547E-03
            1844            2571     59.9498E-03     59.4123E-03
            1844            2578     64.7986E-03     64.3047E-03
            1845            2571     59.9498E-03     59.4123E-03
            1845            2572     51.1953E-03     51.2587E-03
            1845            2578     64.7986E-03     64.3047E-03
            1845            2579     54.1236E-03     54.7058E-03
            1846            2572     51.1953E-03     51.2587E-03
            1846            2573     45.2090E-03     45.7808E-03
            1846            2579     54.1236E-03     54.7058E-03
            1846            2580     45.9128E-03     47.3727E-03
            1847            2573     45.2090E-03     45.7808E-03
            1847            2574     42.1367E-03     43.0130E-03
            1847            2580     45.9128E-03     47.3727E-03
            1847            2581     41.4580E-03     43.2613E-03
            1848            2574     42.1367E-03     43.0130E-03
            1848            2575     42.0172E-03     42.8350E-03
            1848            2581     41.4580E-03     43.2613E-03
            1848            2582     42.4899E-03     44.1054E-03
            1849            2575     42.0172E-03     42.8350E-03
            1849            2576     45.5783E-03     46.0334E-03
            1849            2582     42.4899E-03     44.1054E-03
            1849            2583     48.1395E-03     48.9877E-03
            1850            2576     45.5783E-03     46.0334E-03
            1850            2577     52.8982E-03     52.7040E-03
            1850            2583     48.1395E-03     48.9877E-03
            1850            2584     57.3652E-03     57.2511E-03
            1851             141     62.8836E-03     62.3505E-03
            1851             142     57.4002E-03     56.7996E-03
            1851            2577     52.8982E-03     52.7040E-03
            1851            2584     57.3652E-03     57.2511E-03
            1852             516     78.0996E-03     77.7450E-03
            1852             517     70.8070E-03     69.8079E-03
            1852            2578     64.7986E-03     64.3047E-03
            1852            2585     70.9594E-03     71.1525E-03
            1853            2578     64.7986E-03     64.3047E-03
            1853            2579     54.1236E-03     54.7058E-03
            1853            2585     70.9594E-03     71.1525E-03
            1853            2586     56.5616E-03     57.7336E-03
            1854            2579     54.1236E-03     54.7058E-03
            1854            2580     45.9128E-03     47.3727E-03
            1854            2586     56.5616E-03     57.7336E-03
            1854            2587     44.7547E-03     46.5580E-03
            1855            2580     45.9128E-03     47.3727E-03
            1855            2581     41.4580E-03     43.2613E-03
            1855            2587     44.7547E-03     46.5580E-03
            1855            2588     39.1858E-03     41.3333E-03
            1856            2581     41.4580E-03     43.2613E-03
            1856            2582     42.4899E-03     44.1054E-03
            1856            2588     39.1858E-03     41.3333E-03
            1856            2589     41.0918E-03     43.2315E-03
            1857            2582     42.4899E-03     44.1054E-03
            1857            2583     48.1395E-03     48.9877E-03
            1857            2589     41.0918E-03     43.2315E-03
            1857            2590     50.2738E-03     51.7041E-03
            1858            2583     48.1395E-03     48.9877E-03
            1858            2584     57.3652E-03     57.2511E-03
            1858            2590     50.2738E-03     51.7041E-03
            1858            2591     63.2403E-03     63.5379E-03
            1859             140     69.9503E-03     69.6729E-03
            1859             141     62.8836E-03     62.3505E-03
            1859            2584     57.3652E-03     57.2511E-03
            1859            2591     63.2403E-03     63.5379E-03
            1860             515     88.5129E-03     85.5698E-03
            1860             516     78.0996E-03     77.7450E-03
            1860            2585     70.9594E-03     71.1525E-03
            1860            2592     76.6625E-03     74.6493E-03
            1861            2585     70.9594E-03     71.1525E-03
            1861            2586     56.5616E-03     57.7336E-03
            1861            2592     76.6625E-03     74.6493E-03
            1861            2593     55.3997E-03     54.7681E-03
            1862            2586     56.5616E-03     57.7336E-03
            1862            2587     44.7547E-03     46.5580E-03
            1862            2593     55.3997E-03     54.7681E-03
            1862            2594     40.9696E-03     41.4739E-03
            1863            2587     44.7547E-03     46.5580E-03
            1863            2588     39.1858E-03     41.3333E-03
            1863            2594     40.9696E-03     41.4739E-03
            1863            2595     34.7470E-03     36.2023E-03
            1864            2588     39.1858E-03     41.3333E-03
            1864            2589     41.0918E-03     43.2315E-03
            1864            2595     34.7470E-03     36.2023E-03
            1864            2596     36.8989E-03     38.2249E-03
            1865            2589     41.0918E-03     43.2315E-03
            1865            2590     50.2738E-03     51.7041E-03
            1865            2596     36.8989E-03     38.2249E-03
            1865            2597     48.6698E-03     49.1407E-03
            1866            2590     50.2738E-03     51.7041E-03
            1866            2591     63.2403E-03     63.5379E-03
            1866            2597     48.6698E-03     49.1407E-03
            1866            2598     68.2237E-03     67.3325E-03
            1867             139     79.3637E-03     77.5689E-03
            1867             140     69.9503E-03     69.6729E-03
            1867            2591     63.2403E-03     63.5379E-03
            1867            2598     68.2237E-03     67.3325E-03
            1868             514     79.1714E-03     72.1950E-03
            1868             515     88.5129E-03     85.5698E-03
            1868            2592     76.6625E-03     74.6493E-03
            1868            2599     69.4290E-03     63.3429E-03
            1869            2592     76.6625E-03     74.6493E-03
            1869            2593     55.3997E-03     54.7681E-03
            1869            2599     69.4290E-03     63.3429E-03
            1869            2600     52.8558E-03     48.8979E-03
            1870            2593     55.3997E-03     54.7681E-03
            1870            2594     40.9696E-03     41.4739E-03
            1870            2600     52.8558E-03     48.8979E-03
            1870            2601     41.5139E-03     39.7423E-03
            1871            2594     40.9696E-03     41.4739E-03
            1871            2595     34.7470E-03     36.2023E-03
            1871            2601     41.5139E-03     39.7423E-03
            1871            2602     35.9100E-03     35.2008E-03
            1872            2595     34.7470E-03     36.2023E-03
            1872            2596     36.8989E-03     38.2249E-03
            1872            2602     35.9100E-03     35.2008E-03
            1872            2603     37.4082E-03     36.1034E-03
            1873            2596     36.8989E-03     38.2249E-03
            1873            2597     48.6698E-03     49.1407E-03
            1873            2603     37.4082E-03     36.1034E-03
            1873            2604     45.9750E-03     42.4895E-03
            1874            2597     48.6698E-03     49.1407E-03
            1874            2598     68.2237E-03     67.3325E-03
            1874            2604     45.9750E-03     42.4895E-03
            1874            2605     60.2733E-03     54.3214E-03
            1875             138     68.5956E-03     61.6485E-03
            1875             139     79.3637E-03     77.5689E-03
            1875            2598     68.2237E-03     67.3325E-03
            1875            2605     60.2733E-03     54.3214E-03
            1876             513     68.3680E-03     66.1803E-03
            1876             514     79.1714E-03     72.1950E-03
            1876            2599     69.4290E-03     63.3429E-03
            1876            2606     63.8661E-03     61.0585E-03
            1877            2599     69.4290E-03     63.3429E-03
            1877            2600     52.8558E-03     48.8979E-03
            1877            2606     63.8661E-03     61.0585E-03
            1877            2607     53.9731E-03     50.5891E-03
            1878            2600     52.8558E-03     48.8979E-03
            1878            2601     41.5139E-03     39.7423E-03
            1878            2607     53.9731E-03     50.5891E-03
            1878            2608     44.4424E-03     41.3245E-03
            1879            2601     41.5139E-03     39.7423E-03
            1879            2602     35.9100E-03     35.2008E-03
            1879            2608     44.4424E-03     41.3245E-03
            1879            2609     39.0287E-03     35.9743E-03
            1880            2602     35.9100E-03     35.2008E-03
            1880            2603     37.4082E-03     36.1034E-03
            1880            2609     39.0287E-03     35.9743E-03
            1880            2610     39.8581E-03     36.1715E-03
            1881            2603     37.4082E-03     36.1034E-03
            1881            2604     45.9750E-03     42.4895E-03
            1881            2610     39.8581E-03     36.1715E-03
            1881            2611     46.1443E-03     41.6587E-03
            1882            2604     45.9750E-03     42.4895E-03
            1882            2605     60.2733E-03     54.3214E-03
            1882            2611     46.1443E-03     41.6587E-03
            1882            2612     53.2724E-03     49.3933E-03
            1883             137     56.2180E-03     53.2711E-03
            1883             138     68.5956E-03     61.6485E-03
            1883            2605     60.2733E-03     54.3214E-03
            1883            2612     53.2724E-03     49.3933E-03
            1884             512     76.7665E-03     77.9811E-03
            1884             513     68.3680E-03     66.1803E-03
            1884            2606     63.8661E-03     61.0585E-03
            1884            2613     70.1563E-03     71.3339E-03
            1885            2606     63.8661E-03     61.0585E-03
            1885            2607     53.9731E-03     50.5891E-03
            1885            2613     70.1563E-03     71.3339E-03
            1885            2614     56.9943E-03     56.6650E-03
            1886            2607     53.9731E-03     50.5891E-03
            1886            2608     44.4424E-03     41.3245E-03
            1886            2614     56.9943E-03     56.6650E-03
            1886            2615     45.1337E-03     42.4438E-03
            1887            2608     44.4424E-03     41.3245E-03
            1887            2609     39.0287E-03     35.9743E-03
            1887            2615     45.1337E-03     42.4438E-03
            1887            2616     38.1192E-03     34.2228E-03
            1888            2609     39.0287E-03     35.9743E-03
            1888            2610     39.8581E-03     36.1715E-03
            1888            2616     38.1192E-03     34.2228E-03
            1888            2617     39.3239E-03     35.7015E-03
            1889            2610     39.8581E-03     36.1715E-03
            1889            2611     46.1443E-03     41.6587E-03
            1889            2617     39.3239E-03     35.7015E-03
            1889            2618     47.1924E-03     46.0258E-03
            1890            2611     46.1443E-03     41.6587E-03
            1890            2612     53.2724E-03     49.3933E-03
            1890            2618     47.1924E-03     46.0258E-03
            1890            2619     57.9247E-03     59.2088E-03
            1891             136     63.6990E-03     65.5675E-03
            1891             137     56.2180E-03     53.2711E-03
            1891            2612     53.2724E-03     49.3933E-03
            1891            2619     57.9247E-03     59.2088E-03
            1892             511     83.5223E-03     83.0559E-03
            1892             512     76.7665E-03     77.9811E-03
            1892            2613     70.1563E-03     71.3339E-03
            1892            2620     75.1826E-03     75.5063E-03
            1893            2613     70.1563E-03     71.3339E-03
            1893            2614     56.9943E-03     56.6650E-03
            1893            2620     75.1826E-03     75.5063E-03
            1893            2621     59.6517E-03     60.0369E-03
            1894            2614     56.9943E-03     56.6650E-03
            1894            2615     45.1337E-03     42.4438E-03
            1894            2621     59.6517E-03     60.0369E-03
            1894            2622     46.5123E-03     44.9180E-03
            1895            2615     45.1337E-03     42.4438E-03
            1895            2616     38.1192E-03     34.2228E-03
            1895            2622     46.5123E-03     44.9180E-03
            1895            2623     38.6272E-03     35.4512E-03
            1896            2616     38.1192E-03     34.2228E-03
            1896            2617     39.3239E-03     35.7015E-03
            1896            2623     38.6272E-03     35.4512E-03
            1896            2624     39.7491E-03     37.5539E-03
            1897            2617     39.3239E-03     35.7015E-03
            1897            2618     47.1924E-03     46.0258E-03
            1897            2624     39.7491E-03     37.5539E-03
            1897            2625     48.5933E-03     48.8577E-03
            1898            2618     47.1924E-03     46.0258E-03
            1898            2619     57.9247E-03     59.2088E-03
            1898            2625     48.5933E-03     48.8577E-03
            1898            2626     62.3931E-03     62.9651E-03
            1899             135     70.4075E-03     70.1391E-03
            1899             136     63.6990E-03     65.5675E-03
            1899            2619     57.9247E-03     59.2088E-03
            1899            2626     62.3931E-03     62.9651E-03
            1900             510     89.6186E-03     88.6703E-03
            1900             511     83.5223E-03     83.0559E-03
            1900            2620     75.1826E-03     75.5063E-03
            1900            2627     80.1245E-03     79.6520E-03
            1901            2620     75.1826E-03     75.5063E-03
            1901            2621     59.6517E-03     60.0369E-03
            1901            2627     80.1245E-03     79.6520E-03
            1901            2628     62.3706E-03     62.2891E-03
            1902            2621     59.6517E-03     60.0369E-03
            1902            2622     46.5123E-03     44.9180E-03
            1902            2628     62.3706E-03     62.2891E-03
            1902            2629     47.8259E-03     46.9176E-03
            1903            2622     46.5123E-03     44.9180E-03
            1903            2623     38.6272E-03     35.4512E-03
            1903            2629     47.8259E-03     46.9176E-03
            1903            2630     39.3506E-03     37.5589E-03
            1904            2623     38.6272E-03     35.4512E-03
            1904            2624     39.7491E-03     37.5539E-03
            1904            2630     39.3506E-03     37.5589E-03
            1904            2631     40.4025E-03     39.3822E-03
            1905            2624     39.7491E-03     37.5539E-03
            1905            2625     48.5933E-03     48.8577E-03
            1905            2631     40.4025E-03     39.3822E-03
            1905            2632     50.6639E-03     50.7736E-03
            1906            2625     48.5933E-03     48.8577E-03
            1906            2626     62.3931E-03     62.9651E-03
            1906            2632     50.6639E-03     50.7736E-03
            1906            2633     66.8311E-03     66.7400E-03
            1907             134     75.9791E-03     75.4700E-03
            1907             135     70.4075E-03     70.1391E-03
            1907            2626     62.3931E-03     62.9651E-03
            1907            2633     66.8311E-03     66.7400E-03
            1908             509     95.2302E-03     93.8725E-03
            1908             510     89.6186E-03     88.6703E-03
            1908            2627     80.1245E-03     79.6520E-03
            1908            2634     84.8417E-03     83.9722E-03
            1909            2627     80.1245E-03     79.6520E-03
            1909            2628     62.3706E-03     62.2891E-03
            1909            2634     84.8417E-03     83.9722E-03
            1909            2635     65.2931E-03     64.9863E-03
            1910            2628     62.3706E-03     62.2891E-03
            1910            2629     47.8259E-03     46.9176E-03
            1910            2635     65.2931E-03     64.9863E-03
            1910            2636     49.1982E-03     48.7881E-03
            1911            2629     47.8259E-03     46.9176E-03
            1911            2630     39.3506E-03     37.5589E-03
            1911            2636     49.1982E-03     48.7881E-03
            1911            2637     39.8970E-03     39.3280E-03
            1912            2630     39.3506E-03     37.5589E-03
            1912            2631     40.4025E-03     39.3822E-03
            1912            2637     39.8970E-03     39.3280E-03
            1912            2638     41.3421E-03     41.0921E-03
            1913            2631     40.4025E-03     39.3822E-03
            1913            2632     50.6639E-03     50.7736E-03
            1913            2638     41.3421E-03     41.0921E-03
            1913            2639     53.1214E-03     53.1954E-03
            1914            2632     50.6639E-03     50.7736E-03
            1914            2633     66.8311E-03     66.7400E-03
            1914            2639     53.1214E-03     53.1954E-03
            1914            2640     71.2140E-03     70.7263E-03
            1915             133     81.3390E-03     80.2655E-03
            1915             134     75.9791E-03     75.4700E-03
            1915            2633     66.8311E-03     66.7400E-03
            1915            2640     71.2140E-03     70.7263E-03
            1916             508     100.769E-03     99.2402E-03
            1916             509     95.2302E-03     93.8725E-03
            1916            2634     84.8417E-03     83.9722E-03
            1916            2641     89.5615E-03     88.5414E-03
            1917            2634     84.8417E-03     83.9722E-03
            1917            2635     65.2931E-03     64.9863E-03
            1917            2641     89.5615E-03     88.5414E-03
            1917            2642     68.3718E-03     68.1841E-03
            1918            2635     65.2931E-03     64.9863E-03
            1918            2636     49.1982E-03     48.7881E-03
            1918            2642     68.3718E-03     68.1841E-03
            1918            2643     50.5941E-03     50.8267E-03
            1919            2636     49.1982E-03     48.7881E-03
            1919            2637     39.8970E-03     39.3280E-03
            1919            2643     50.5941E-03     50.8267E-03
            1919            2644     40.3223E-03     40.7457E-03
            1920            2637     39.8970E-03     39.3280E-03
            1920            2638     41.3421E-03     41.0921E-03
            1920            2644     40.3223E-03     40.7457E-03
            1920            2645     42.4211E-03     42.9738E-03
            1921            2638     41.3421E-03     41.0921E-03
            1921            2639     53.1214E-03     53.1954E-03
            1921            2645     42.4211E-03     42.9738E-03
            1921            2646     55.8739E-03     56.1018E-03
            1922            2639     53.1214E-03     53.1954E-03
            1922            2640     71.2140E-03     70.7263E-03
            1922            2646     55.8739E-03     56.1018E-03
            1922            2647     75.6401E-03     75.0252E-03
            1923             132     86.5287E-03     85.4307E-03
            1923             133     81.3390E-03     80.2655E-03
            1923            2640     71.2140E-03     70.7263E-03
            1923            2647     75.6401E-03     75.0252E-03
            1924             507     106.367E-03     104.868E-03
            1924             508     100.769E-03     99.2402E-03
            1924            2641     89.5615E-03     88.5414E-03
            1924            2648     94.3509E-03     93.4408E-03
            1925            2641     89.5615E-03     88.5414E-03
            1925            2642     68.3718E-03     68.1841E-03
            1925            2648     94.3509E-03     93.4408E-03
            1925            2649     71.2903E-03     71.4815E-03
            1926            2642     68.3718E-03     68.1841E-03
            1926            2643     50.5941E-03     50.8267E-03
            1926            2649     71.2903E-03     71.4815E-03
            1926            2650     51.9475E-03     53.1316E-03
            1927            2643     50.5941E-03     50.8267E-03
            1927            2644     40.3223E-03     40.7457E-03
            1927            2650     51.9475E-03     53.1316E-03
            1927            2651     40.9711E-03     42.7661E-03
            1928            2644     40.3223E-03     40.7457E-03
            1928            2645     42.4211E-03     42.9738E-03
            1928            2651     40.9711E-03     42.7661E-03
            1928            2652     43.4198E-03     44.9432E-03
            1929            2645     42.4211E-03     42.9738E-03
            1929            2646     55.8739E-03     56.1018E-03
            1929            2652     43.4198E-03     44.9432E-03
            1929            2653     58.5048E-03     59.1243E-03
            1930            2646     55.8739E-03     56.1018E-03
            1930            2647     75.6401E-03     75.0252E-03
            1930            2653     58.5048E-03     59.1243E-03
            1930            2654     80.1967E-03     79.6692E-03
            1931             131     91.9307E-03     90.7575E-03
            1931             132     86.5287E-03     85.4307E-03
            1931            2647     75.6401E-03     75.0252E-03
            1931            2654     80.1967E-03     79.6692E-03
            1932             506     111.678E-03     110.186E-03
            1932             507     106.367E-03     104.868E-03
            1932            2648     94.3509E-03     93.4408E-03
            1932            2655     98.8872E-03     98.3463E-03
            1933            2648     94.3509E-03     93.4408E-03
            1933            2649     71.2903E-03     71.4815E-03
            1933            2655     98.8872E-03     98.3463E-03
            1933            2656     74.4334E-03     75.6514E-03
            1934            2649     71.2903E-03     71.4815E-03
            1934            2650     51.9475E-03     53.1316E-03
            1934            2656     74.4334E-03     75.6514E-03
            1934            2657     52.9247E-03     55.4405E-03
            1935            2650     51.9475E-03     53.1316E-03
            1935            2651     40.9711E-03     42.7661E-03
            1935            2657     52.9247E-03     55.4405E-03
            1935            2658     40.3488E-03     43.5329E-03
            1936            2651     40.9711E-03     42.7661E-03
            1936            2652     43.4198E-03     44.9432E-03
            1936            2658     40.3488E-03     43.5329E-03
            1936            2659     44.1860E-03     47.0703E-03
            1937            2652     43.4198E-03     44.9432E-03
            1937            2653     58.5048E-03     59.1243E-03
            1937            2659     44.1860E-03     47.0703E-03
            1937            2660     61.3864E-03     62.9238E-03
            1938            2653     58.5048E-03     59.1243E-03
            1938            2654     80.1967E-03     79.6692E-03
            1938            2660     61.3864E-03     62.9238E-03
            1938            2661     84.4826E-03     84.3437E-03
            1939             130     96.9460E-03     95.9993E-03
            1939             131     91.9307E-03     90.7575E-03
            1939            2654     80.1967E-03     79.6692E-03
            1939            2661     84.4826E-03     84.3437E-03
            1940             505     118.449E-03     118.170E-03
            1940             506     111.678E-03     110.186E-03
            1940            2655     98.8872E-03     98.3463E-03
            1940            2662     104.751E-03     105.364E-03
            1941            2655     98.8872E-03     98.3463E-03
            1941            2656     74.4334E-03     75.6514E-03
            1941            2662     104.751E-03     105.364E-03
            1941            2663     76.6988E-03     78.5423E-03
            1942            2656     74.4334E-03     75.6514E-03
            1942            2657     52.9247E-03     55.4405E-03
            1942            2663     76.6988E-03     78.5423E-03
            1942            2664     51.5624E-03     54.2411E-03
            1943            2657     52.9247E-03     55.4405E-03
            1943            2658     40.3488E-03     43.5329E-03
            1943            2664     51.5624E-03     54.2411E-03
            1943            2665     37.8379E-03     41.4361E-03
            1944            2658     40.3488E-03     43.5329E-03
            1944            2659     44.1860E-03     47.0703E-03
            1944            2665     37.8379E-03     41.4361E-03
            1944            2666     42.5324E-03     46.0625E-03
            1945            2659     44.1860E-03     47.0703E-03
            1945            2660     61.3864E-03     62.9238E-03
            1945            2666     42.5324E-03     46.0625E-03
            1945            2667     63.4039E-03     65.7846E-03
            1946            2660     61.3864E-03     62.9238E-03
            1946            2661     84.4826E-03     84.3437E-03
            1946            2667     63.4039E-03     65.7846E-03
            1946            2668     90.0734E-03     90.8506E-03
            1947             129     103.508E-03     103.342E-03
            1947             130     96.9460E-03     95.9993E-03
            1947            2661     84.4826E-03     84.3437E-03
            1947            2668     90.0734E-03     90.8506E-03
            1948             504     128.382E-03     123.837E-03
            1948             505     118.449E-03     118.170E-03
            1948            2662     104.751E-03     105.364E-03
            1948            2669     109.514E-03     105.993E-03
            1949            2662     104.751E-03     105.364E-03
            1949            2663     76.6988E-03     78.5423E-03
            1949            2669     109.514E-03     105.993E-03
            1949            2670     74.4813E-03     72.5962E-03
            1950            2663     76.6988E-03     78.5423E-03
            1950            2664     51.5624E-03     54.2411E-03
            1950            2670     74.4813E-03     72.5962E-03
            1950            2671     47.0025E-03     47.1255E-03
            1951            2664     51.5624E-03     54.2411E-03
            1951            2665     37.8379E-03     41.4361E-03
            1951            2671     47.0025E-03     47.1255E-03
            1951            2672     32.2829E-03     34.4981E-03
            1952            2665     37.8379E-03     41.4361E-03
            1952            2666     42.5324E-03     46.0625E-03
            1952            2672     32.2829E-03     34.4981E-03
            1952            2673     37.3294E-03     39.0617E-03
            1953            2666     42.5324E-03     46.0625E-03
            1953            2667     63.4039E-03     65.7846E-03
            1953            2673     37.3294E-03     39.0617E-03
            1953            2674     60.8958E-03     60.6893E-03
            1954            2667     63.4039E-03     65.7846E-03
            1954            2668     90.0734E-03     90.8506E-03
            1954            2674     60.8958E-03     60.6893E-03
            1954            2675     94.1086E-03     92.0554E-03
            1955             128     112.208E-03     109.067E-03
            1955             129     103.508E-03     103.342E-03
            1955            2668     90.0734E-03     90.8506E-03
            1955            2675     94.1086E-03     92.0554E-03
            1956             503     119.709E-03     108.663E-03
            1956             504     128.382E-03     123.837E-03
            1956            2669     109.514E-03     105.993E-03
            1956            2676     101.956E-03     92.0559E-03
            1957            2669     109.514E-03     105.993E-03
            1957            2670     74.4813E-03     72.5962E-03
            1957            2676     101.956E-03     92.0559E-03
            1957            2677     71.4838E-03     64.6642E-03
            1958            2670     74.4813E-03     72.5962E-03
            1958            2671     47.0025E-03     47.1255E-03
            1958            2677     71.4838E-03     64.6642E-03
            1958            2678     48.4438E-03     45.2104E-03
            1959            2671     47.0025E-03     47.1255E-03
            1959            2672     32.2829E-03     34.4981E-03
            1959            2678     48.4438E-03     45.2104E-03
            1959            2679     35.1087E-03     33.9492E-03
            1960            2672     32.2829E-03     34.4981E-03
            1960            2673     37.3294E-03     39.0617E-03
            1960            2679     35.1087E-03     33.9492E-03
            1960            2680     39.1324E-03     36.8157E-03
            1961            2673     37.3294E-03     39.0617E-03
            1961            2674     60.8958E-03     60.6893E-03
            1961            2680     39.1324E-03     36.8157E-03
            1961            2681     57.8640E-03     51.7650E-03
            1962            2674     60.8958E-03     60.6893E-03
            1962            2675     94.1086E-03     92.0554E-03
            1962            2681     57.8640E-03     51.7650E-03
            1962            2682     85.5732E-03     76.0784E-03
            1963             127     101.589E-03     90.9013E-03
            1963             128     112.208E-03     109.067E-03
            1963            2675     94.1086E-03     92.0554E-03
            1963            2682     85.5732E-03     76.0784E-03
            1964             502     109.130E-03     105.231E-03
            1964             503     119.709E-03     108.663E-03
            1964            2676     101.956E-03     92.0559E-03
            1964            2683     97.2477E-03     92.8587E-03
            1965            2676     101.956E-03     92.0559E-03
            1965            2677     71.4838E-03     64.6642E-03
            1965            2683     97.2477E-03     92.8587E-03
            1965            2684     73.6649E-03     68.8961E-03
            1966            2677     71.4838E-03     64.6642E-03
            1966            2678     48.4438E-03     45.2104E-03
            1966            2684     73.6649E-03     68.8961E-03
            1966            2685     52.5683E-03     48.3213E-03
            1967            2678     48.4438E-03     45.2104E-03
            1967            2679     35.1087E-03     33.9492E-03
            1967            2685     52.5683E-03     48.3213E-03
            1967            2686     40.0621E-03     35.8809E-03
            1968            2679     35.1087E-03     33.9492E-03
            1968            2680     39.1324E-03     36.8157E-03
            1968            2686     40.0621E-03     35.8809E-03
            1968            2687     42.7109E-03     37.5784E-03
            1969            2680     39.1324E-03     36.8157E-03
            1969            2681     57.8640E-03     51.7650E-03
            1969            2687     42.7109E-03     37.5784E-03
            1969            2688     58.6195E-03     52.5899E-03
            1970            2681     57.8640E-03     51.7650E-03
            1970            2682     85.5732E-03     76.0784E-03
            1970            2688     58.6195E-03     52.5899E-03
            1970            2689     79.0672E-03     73.6489E-03
            1971             126     89.3654E-03     84.8498E-03
            1971             127     101.589E-03     90.9013E-03
            1971            2682     85.5732E-03     76.0784E-03
            1971            2689     79.0672E-03     73.6489E-03
            1972             501     116.700E-03     117.904E-03
            1972             502     109.130E-03     105.231E-03
            1972            2683     97.2477E-03     92.8587E-03
            1972            2690     103.783E-03     105.349E-03
            1973            2683     97.2477E-03     92.8587E-03
            1973            2684     73.6649E-03     68.8961E-03
            1973            2690     103.783E-03     105.349E-03
            1973            2691     77.6529E-03     77.8505E-03
            1974            2684     73.6649E-03     68.8961E-03
            1974            2685     52.5683E-03     48.3213E-03
            1974            2691     77.6529E-03     77.8505E-03
            1974            2692     53.1580E-03     50.2353E-03
            1975            2685     52.5683E-03     48.3213E-03
            1975            2686     40.0621E-03     35.8809E-03
            1975            2692     53.1580E-03     50.2353E-03
            1975            2693     37.8786E-03     32.7903E-03
            1976            2686     40.0621E-03     35.8809E-03
            1976            2687     42.7109E-03     37.5784E-03
            1976            2693     37.8786E-03     32.7903E-03
            1976            2694     41.1808E-03     36.7214E-03
            1977            2687     42.7109E-03     37.5784E-03
            1977            2688     58.6195E-03     52.5899E-03
            1977            2694     41.1808E-03     36.7214E-03
            1977            2695     60.0458E-03     59.3177E-03
            1978            2688     58.6195E-03     52.5899E-03
            1978            2689     79.0672E-03     73.6489E-03
            1978            2695     60.0458E-03     59.3177E-03
            1978            2696     84.0503E-03     85.8096E-03
            1979             125     96.4890E-03     98.4082E-03
            1979             126     89.3654E-03     84.8498E-03
            1979            2689     79.0672E-03     73.6489E-03
            1979            2696     84.0503E-03     85.8096E-03
            1980             500     123.009E-03     122.032E-03
            1980             501     116.700E-03     117.904E-03
            1980            2690     103.783E-03     105.349E-03
            1980            2697     108.570E-03     108.846E-03
            1981            2690     103.783E-03     105.349E-03
            1981            2691     77.6529E-03     77.8505E-03
            1981            2697     108.570E-03     108.846E-03
            1981            2698     80.5554E-03     81.5141E-03
            1982            2691     77.6529E-03     77.8505E-03
            1982            2692     53.1580E-03     50.2353E-03
            1982            2698     80.5554E-03     81.5141E-03
            1982            2699     54.6759E-03     53.2488E-03
            1983            2692     53.1580E-03     50.2353E-03
            1983            2693     37.8786E-03     32.7903E-03
            1983            2699     54.6759E-03     53.2488E-03
            1983            2700     37.9203E-03     33.8947E-03
            1984            2693     37.8786E-03     32.7903E-03
            1984            2694     41.1808E-03     36.7214E-03
            1984            2700     37.9203E-03     33.8947E-03
            1984            2701     41.3261E-03     38.7858E-03
            1985            2694     41.1808E-03     36.7214E-03
            1985            2695     60.0458E-03     59.3177E-03
            1985            2701     41.3261E-03     38.7858E-03
            1985            2702     61.5933E-03     62.4181E-03
            1986            2695     60.0458E-03     59.3177E-03
            1986            2696     84.0503E-03     85.8096E-03
            1986            2702     61.5933E-03     62.4181E-03
            1986            2703     88.4444E-03     89.0504E-03
            1987             124     102.886E-03     102.177E-03
            1987             125     96.4890E-03     98.4082E-03
            1987            2696     84.0503E-03     85.8096E-03
            1987            2703     88.4444E-03     89.0504E-03
            1988             499     128.832E-03     127.340E-03
            1988             500     123.009E-03     122.032E-03
            1988            2697     108.570E-03     108.846E-03
            1988            2704     113.356E-03     112.594E-03
            1989            2697     108.570E-03     108.846E-03
            1989            2698     80.5554E-03     81.5141E-03
            1989            2704     113.356E-03     112.594E-03
            1989            2705     83.2665E-03     83.3190E-03
            1990            2698     80.5554E-03     81.5141E-03
            1990            2699     54.6759E-03     53.2488E-03
            1990            2705     83.2665E-03     83.3190E-03
            1990            2706     56.0758E-03     55.2431E-03
            1991            2699     54.6759E-03     53.2488E-03
            1991            2700     37.9203E-03     33.8947E-03
            1991            2706     56.0758E-03     55.2431E-03
            1991            2707     38.6685E-03     36.4448E-03
            1992            2700     37.9203E-03     33.8947E-03
            1992            2701     41.3261E-03     38.7858E-03
            1992            2707     38.6685E-03     36.4448E-03
            1992            2708     41.9495E-03     40.7206E-03
            1993            2701     41.3261E-03     38.7858E-03
            1993            2702     61.5933E-03     62.4181E-03
            1993            2708     41.9495E-03     40.7206E-03
            1993            2709     63.7047E-03     63.9814E-03
            1994            2702     61.5933E-03     62.4181E-03
            1994            2703     88.4444E-03     89.0504E-03
            1994            2709     63.7047E-03     63.9814E-03
            1994            2710     92.7511E-03     92.4672E-03
            1995             123     108.154E-03     107.218E-03
            1995             124     102.886E-03     102.177E-03
            1995            2703     88.4444E-03     89.0504E-03
            1995            2710     92.7511E-03     92.4672E-03
            1996             498     134.019E-03     132.052E-03
            1996             499     128.832E-03     127.340E-03
            1996            2704     113.356E-03     112.594E-03
            1996            2711     117.784E-03     116.526E-03
            1997            2704     113.356E-03     112.594E-03
            1997            2705     83.2665E-03     83.3190E-03
            1997            2711     117.784E-03     116.526E-03
            1997            2712     86.1615E-03     85.8068E-03
            1998            2705     83.2665E-03     83.3190E-03
            1998            2706     56.0758E-03     55.2431E-03
            1998            2712     86.1615E-03     85.8068E-03
            1998            2713     57.5551E-03     57.1347E-03
            1999            2706     56.0758E-03     55.2431E-03
            1999            2707     38.6685E-03     36.4448E-03
            1999            2713     57.5551E-03     57.1347E-03
            1999            2714     39.3215E-03     38.5986E-03
            2000            2707     38.6685E-03     36.4448E-03
            2000            2708     41.9495E-03     40.7206E-03
            2000            2714     39.3215E-03     38.5986E-03
            2000            2715     43.0199E-03     42.7130E-03
            2001            2708     41.9495E-03     40.7206E-03
            2001            2709     63.7047E-03     63.9814E-03
            2001            2715     43.0199E-03     42.7130E-03
            2001            2716     66.1988E-03     66.2842E-03
            2002            2709     63.7047E-03     63.9814E-03
            2002            2710     92.7511E-03     92.4672E-03
            2002            2716     66.1988E-03     66.2842E-03
            2002            2717     96.8864E-03     96.1095E-03
            2003             122     113.108E-03     111.535E-03
            2003             123     108.154E-03     107.218E-03
            2003            2710     92.7511E-03     92.4672E-03
            2003            2717     96.8864E-03     96.1095E-03
            2004             497     139.113E-03     136.989E-03
            2004             498     134.019E-03     132.052E-03
            2004            2711     117.784E-03     116.526E-03
            2004            2718     122.181E-03     120.782E-03
            2005            2711     117.784E-03     116.526E-03
            2005            2712     86.1615E-03     85.8068E-03
            2005            2718     122.181E-03     120.782E-03
            2005            2719     89.1678E-03     88.9325E-03
            2006            2712     86.1615E-03     85.8068E-03
            2006            2713     57.5551E-03     57.1347E-03
            2006            2719     89.1678E-03     88.9325E-03
            2006            2720     59.0396E-03     59.3572E-03
            2007            2713     57.5551E-03     57.1347E-03
            2007            2714     39.3215E-03     38.5986E-03
            2007            2720     59.0396E-03     59.3572E-03
            2007            2721     39.8656E-03     40.4418E-03
            2008            2714     39.3215E-03     38.5986E-03
            2008            2715     43.0199E-03     42.7130E-03
            2008            2721     39.8656E-03     40.4418E-03
            2008            2722     44.2494E-03     44.9822E-03
            2009            2715     43.0199E-03     42.7130E-03
            2009            2716     66.1988E-03     66.2842E-03
            2009            2722     44.2494E-03     44.9822E-03
            2009            2723     68.9860E-03     69.2513E-03
            2010            2716     66.1988E-03     66.2842E-03
            2010            2717     96.8864E-03     96.1095E-03
            2010            2723     68.9860E-03     69.2513E-03
            2010            2724     101.045E-03     100.149E-03
            2011             121     117.878E-03     116.301E-03
            2011             122     113.108E-03     111.535E-03
            2011            2717     96.8864E-03     96.1095E-03
            2011            2724     101.045E-03     100.149E-03
            2012             496     144.244E-03     142.243E-03
            2012             497     139.113E-03     136.989E-03
            2012            2718     122.181E-03     120.782E-03
            2012            2725     126.616E-03     125.439E-03
            2013            2718     122.181E-03     120.782E-03
            2013            2719     89.1678E-03     88.9325E-03
            2013            2725     126.616E-03     125.439E-03
            2013            2726     91.9648E-03     92.2814E-03
            2014            2719     89.1678E-03     88.9325E-03
            2014            2720     59.0396E-03     59.3572E-03
            2014            2726     91.9648E-03     92.2814E-03
            2014            2727     60.5170E-03     62.0903E-03
            2015            2720     59.0396E-03     59.3572E-03
            2015            2721     39.8656E-03     40.4418E-03
            2015            2727     60.5170E-03     62.0903E-03
            2015            2728     40.7345E-03     43.1657E-03
            2016            2721     39.8656E-03     40.4418E-03
            2016            2722     44.2494E-03     44.9822E-03
            2016            2728     40.7345E-03     43.1657E-03
            2016            2729     45.4171E-03     47.5234E-03
            2017            2722     44.2494E-03     44.9822E-03
            2017            2723     68.9860E-03     69.2513E-03
            2017            2729     45.4171E-03     47.5234E-03
            2017            2730     71.6125E-03     72.4543E-03
            2018            2723     68.9860E-03     69.2513E-03
            2018            2724     101.045E-03     100.149E-03
            2018            2730     71.6125E-03     72.4543E-03
            2018            2731     105.313E-03     104.622E-03
            2019             120     122.858E-03     121.304E-03
            2019             121     117.878E-03     116.301E-03
            2019            2724     101.045E-03     100.149E-03
            2019            2731     105.313E-03     104.622E-03
            2020             495     148.915E-03     147.003E-03
            2020             496     144.244E-03     142.243E-03
            2020            2725     126.616E-03     125.439E-03
            2020            2732     130.674E-03     130.127E-03
            2021            2725     126.616E-03     125.439E-03
            2021            2726     91.9648E-03     92.2814E-03
            2021            2732     130.674E-03     130.127E-03
            2021            2733     94.9999E-03     96.7470E-03
            2022            2726     91.9648E-03     92.2814E-03
            2022            2727     60.5170E-03     62.0903E-03
            2022            2733     94.9999E-03     96.7470E-03
            2022            2734     61.5261E-03     64.7595E-03
            2023            2727     60.5170E-03     62.0903E-03
            2023            2728     40.7345E-03     43.1657E-03
            2023            2734     61.5261E-03     64.7595E-03
            2023            2735     40.0955E-03     44.3526E-03
            2024            2728     40.7345E-03     43.1657E-03
            2024            2729     45.4171E-03     47.5234E-03
            2024            2735     40.0955E-03     44.3526E-03
            2024            2736     46.3109E-03     50.2915E-03
            2025            2729     45.4171E-03     47.5234E-03
            2025            2730     71.6125E-03     72.4543E-03
            2025            2736     46.3109E-03     50.2915E-03
            2025            2737     74.5108E-03     76.6983E-03
            2026            2730     71.6125E-03     72.4543E-03
            2026            2731     105.313E-03     104.622E-03
            2026            2737     74.5108E-03     76.6983E-03
            2026            2738     109.211E-03     109.148E-03
            2027             119     127.316E-03     126.052E-03
            2027             120     122.858E-03     121.304E-03
            2027            2731     105.313E-03     104.622E-03
            2027            2738     109.211E-03     109.148E-03
            2028             494     155.082E-03     154.926E-03
            2028             495     148.915E-03     147.003E-03
            2028            2732     130.674E-03     130.127E-03
            2028            2739     136.103E-03     137.114E-03
            2029            2732     130.674E-03     130.127E-03
            2029            2733     94.9999E-03     96.7470E-03
            2029            2739     136.103E-03     137.114E-03
            2029            2740     96.9190E-03     99.2194E-03
            2030            2733     94.9999E-03     96.7470E-03
            2030            2734     61.5261E-03     64.7595E-03
            2030            2740     96.9190E-03     99.2194E-03
            2030            2741     59.9205E-03     63.0340E-03
            2031            2734     61.5261E-03     64.7595E-03
            2031            2735     40.0955E-03     44.3526E-03
            2031            2741     59.9205E-03     63.0340E-03
            2031            2742     37.4203E-03     42.1047E-03
            2032            2735     40.0955E-03     44.3526E-03
            2032            2736     46.3109E-03     50.2915E-03
            2032            2742     37.4203E-03     42.1047E-03
            2032            2743     44.4276E-03     49.0520E-03
            2033            2736     46.3109E-03     50.2915E-03
            2033            2737     74.5108E-03     76.6983E-03
            2033            2743     44.4276E-03     49.0520E-03
            2033            2744     76.3154E-03     79.3986E-03
            2034            2737     74.5108E-03     76.6983E-03
            2034            2738     109.211E-03     109.148E-03
            2034            2744     76.3154E-03     79.3986E-03
            2034            2745     114.370E-03     115.630E-03
            2035             118     133.250E-03     133.289E-03
            2035             119     127.316E-03     126.052E-03
            2035            2738     109.211E-03     109.148E-03
            2035            2745     114.370E-03     115.630E-03
            2036             493     164.443E-03     158.466E-03
            2036             494     155.082E-03     154.926E-03
            2036            2739     136.103E-03     137.114E-03
            2036            2746     139.920E-03     134.984E-03
            2037            2739     136.103E-03     137.114E-03
            2037            2740     96.9190E-03     99.2194E-03
            2037            2746     139.920E-03     134.984E-03
            2037            2747     93.7235E-03     90.5171E-03
            2038            2740     96.9190E-03     99.2194E-03
            2038            2741     59.9205E-03     63.0340E-03
            2038            2747     93.7235E-03     90.5171E-03
            2038            2748     54.9262E-03     54.3013E-03
            2039            2741     59.9205E-03     63.0340E-03
            2039            2742     37.4203E-03     42.1047E-03
            2039            2748     54.9262E-03     54.3013E-03
            2039            2749     31.2022E-03     33.7803E-03
            2040            2742     37.4203E-03     42.1047E-03
            2040            2743     44.4276E-03     49.0520E-03
            2040            2749     31.2022E-03     33.7803E-03
            2040            2750     38.5388E-03     40.3579E-03
            2041            2743     44.4276E-03     49.0520E-03
            2041            2744     76.3154E-03     79.3986E-03
            2041            2750     38.5388E-03     40.3579E-03
            2041            2751     73.1667E-03     71.9931E-03
            2042            2744     76.3154E-03     79.3986E-03
            2042            2745     114.370E-03     115.630E-03
            2042            2751     73.1667E-03     71.9931E-03
            2042            2752     117.504E-03     114.277E-03
            2043             117     141.151E-03     136.794E-03
            2043             118     133.250E-03     133.289E-03
            2043            2745     114.370E-03     115.630E-03
            2043            2752     117.504E-03     114.277E-03
            2044             492     156.726E-03     142.709E-03
            2044             493     164.443E-03     158.466E-03
            2044            2746     139.920E-03     134.984E-03
            2044            2753     132.389E-03     119.664E-03
            2045            2746     139.920E-03     134.984E-03
            2045            2747     93.7235E-03     90.5171E-03
            2045            2753     132.389E-03     119.664E-03
            2045            2754     90.4171E-03     81.4107E-03
            2046            2747     93.7235E-03     90.5171E-03
            2046            2748     54.9262E-03     54.3013E-03
            2046            2754     90.4171E-03     81.4107E-03
            2046            2755     57.0209E-03     52.5387E-03
            2047            2748     54.9262E-03     54.3013E-03
            2047            2749     31.2022E-03     33.7803E-03
            2047            2755     57.0209E-03     52.5387E-03
            2047            2756     35.6161E-03     34.0293E-03
            2048            2749     31.2022E-03     33.7803E-03
            2048            2750     38.5388E-03     40.3579E-03
            2048            2756     35.6161E-03     34.0293E-03
            2048            2757     41.8584E-03     38.7455E-03
            2049            2750     38.5388E-03     40.3579E-03
            2049            2751     73.1667E-03     71.9931E-03
            2049            2757     41.8584E-03     38.7455E-03
            2049            2758     70.3121E-03     62.2644E-03
            2050            2751     73.1667E-03     71.9931E-03
            2050            2752     117.504E-03     114.277E-03
            2050            2758     70.3121E-03     62.2644E-03
            2050            2759     109.180E-03     97.2482E-03
            2051             116     131.480E-03     118.276E-03
            2051             117     141.151E-03     136.794E-03
            2051            2752     117.504E-03     114.277E-03
            2051            2759     109.180E-03     97.2482E-03
            2052             491     147.315E-03     142.479E-03
            2052             492     156.726E-03     142.709E-03
            2052            2753     132.389E-03     119.664E-03
            2052            2760     129.218E-03     124.148E-03
            2053            2753     132.389E-03     119.664E-03
            2053            2754     90.4171E-03     81.4107E-03
            2053            2760     129.218E-03     124.148E-03
            2053            2761     93.7762E-03     88.6162E-03
            2054            2754     90.4171E-03     81.4107E-03
            2054            2755     57.0209E-03     52.5387E-03
            2054            2761     93.7762E-03     88.6162E-03
            2054            2762     62.0434E-03     57.5535E-03
            2055            2755     57.0209E-03     52.5387E-03
            2055            2756     35.6161E-03     34.0293E-03
            2055            2762     62.0434E-03     57.5535E-03
            2055            2763     42.3256E-03     37.8118E-03
            2056            2756     35.6161E-03     34.0293E-03
            2056            2757     41.8584E-03     38.7455E-03
            2056            2763     42.3256E-03     37.8118E-03
            2056            2764     46.6876E-03     41.1047E-03
            2057            2757     41.8584E-03     38.7455E-03
            2057            2758     70.3121E-03     62.2644E-03
            2057            2764     46.6876E-03     41.1047E-03
            2057            2765     72.1213E-03     65.7783E-03
            2058            2758     70.3121E-03     62.2644E-03
            2058            2759     109.180E-03     97.2482E-03
            2058            2765     72.1213E-03     65.7783E-03
            2058            2766     104.314E-03     98.4620E-03
            2059             115     120.766E-03     115.644E-03
            2059             116     131.480E-03     118.276E-03
            2059            2759     109.180E-03     97.2482E-03
            2059            2766     104.314E-03     98.4620E-03
            2060             490     154.240E-03     155.825E-03
            2060             491     147.315E-03     142.479E-03
            2060            2760     129.218E-03     124.148E-03
            2060            2767     136.092E-03     138.460E-03
            2061            2760     129.218E-03     124.148E-03
            2061            2761     93.7762E-03     88.6162E-03
            2061            2767     136.092E-03     138.460E-03
            2061            2768     98.9383E-03     100.350E-03
            2062            2761     93.7762E-03     88.6162E-03
            2062            2762     62.0434E-03     57.5535E-03
            2062            2768     98.9383E-03     100.350E-03
            2062            2769     62.8911E-03     60.9430E-03
            2063            2762     62.0434E-03     57.5535E-03
            2063            2763     42.3256E-03     37.8118E-03
            2063            2769     62.8911E-03     60.9430E-03
            2063            2770     39.0559E-03     34.2526E-03
            2064            2763     42.3256E-03     37.8118E-03
            2064            2764     46.6876E-03     41.1047E-03
            2064            2770     39.0559E-03     34.2526E-03
            2064            2771     44.5075E-03     40.5670E-03
            2065            2764     46.6876E-03     41.1047E-03
            2065            2765     72.1213E-03     65.7783E-03
            2065            2771     44.5075E-03     40.5670E-03
            2065            2772     74.3034E-03     74.8321E-03
            2066            2765     72.1213E-03     65.7783E-03
            2066            2766     104.314E-03     98.4620E-03
            2066            2772     74.3034E-03     74.8321E-03
            2066            2773     109.777E-03     112.401E-03
            2067             114     127.701E-03     130.046E-03
            2067             115     120.766E-03     115.644E-03
            2067            2766     104.314E-03     98.4620E-03
            2067            2773     109.777E-03     112.401E-03
            2068             489     160.283E-03     159.277E-03
            2068             490     154.240E-03     155.825E-03
            2068            2767     136.092E-03     138.460E-03
            2068            2774     140.691E-03     141.676E-03
            2069            2767     136.092E-03     138.460E-03
            2069            2768     98.9383E-03     100.350E-03
            2069            2774     140.691E-03     141.676E-03
            2069            2775     102.104E-03     104.818E-03
            2070            2768     98.9383E-03     100.350E-03
            2070            2769     62.8911E-03     60.9430E-03
            2070            2775     102.104E-03     104.818E-03
            2070            2776     64.6512E-03     65.0284E-03
            2071            2769     62.8911E-03     60.9430E-03
            2071            2770     39.0559E-03     34.2526E-03
            2071            2776     64.6512E-03     65.0284E-03
            2071            2777     38.7141E-03     35.9144E-03
            2072            2770     39.0559E-03     34.2526E-03
            2072            2771     44.5075E-03     40.5670E-03
            2072            2777     38.7141E-03     35.9144E-03
            2072            2778     44.5533E-03     43.5319E-03
            2073            2771     44.5075E-03     40.5670E-03
            2073            2772     74.3034E-03     74.8321E-03
            2073            2778     44.5533E-03     43.5319E-03
            2073            2779     76.0736E-03     78.6630E-03
            2074            2772     74.3034E-03     74.8321E-03
            2074            2773     109.777E-03     112.401E-03
            2074            2779     76.0736E-03     78.6630E-03
            2074            2780     114.145E-03     115.524E-03
            2075             113     134.014E-03     133.453E-03
            2075             114     127.701E-03     130.046E-03
            2075            2773     109.777E-03     112.401E-03
            2075            2780     114.145E-03     115.524E-03
            2076             488     165.934E-03     164.839E-03
            2076             489     160.283E-03     159.277E-03
            2076            2774     140.691E-03     141.676E-03
            2076            2781     145.355E-03     145.611E-03
            2077            2774     140.691E-03     141.676E-03
            2077            2775     102.104E-03     104.818E-03
            2077            2781     145.355E-03     145.611E-03
            2077            2782     104.568E-03     106.750E-03
            2078            2775     102.104E-03     104.818E-03
            2078            2776     64.6512E-03     65.0284E-03
            2078            2782     104.568E-03     106.750E-03
            2078            2783     66.1058E-03     68.0766E-03
            2079            2776     64.6512E-03     65.0284E-03
            2079            2777     38.7141E-03     35.9144E-03
            2079            2783     66.1058E-03     68.0766E-03
            2079            2784     39.7793E-03     40.5308E-03
            2080            2777     38.7141E-03     35.9144E-03
            2080            2778     44.5533E-03     43.5319E-03
            2080            2784     39.7793E-03     40.5308E-03
            2080            2785     45.0455E-03     46.6165E-03
            2081            2778     44.5533E-03     43.5319E-03
            2081            2779     76.0736E-03     78.6630E-03
            2081            2785     45.0455E-03     46.6165E-03
            2081            2786     78.0073E-03     80.4444E-03
            2082            2779     76.0736E-03     78.6630E-03
            2082            2780     114.145E-03     115.524E-03
            2082            2786     78.0073E-03     80.4444E-03
            2082            2787     118.433E-03     119.232E-03
            2083             112     139.235E-03     138.784E-03
            2083             113     134.014E-03     133.453E-03
            2083            2780     114.145E-03     115.524E-03
            2083            2787     118.433E-03     119.232E-03
            2084             487     170.468E-03     168.821E-03
            2084             488     165.934E-03     164.839E-03
            2084            2781     145.355E-03     145.611E-03
            2084            2788     149.223E-03     149.580E-03
            2085            2781     145.355E-03     145.611E-03
            2085            2782     104.568E-03     106.750E-03
            2085            2788     149.223E-03     149.580E-03
            2085            2789     107.439E-03     110.523E-03
            2086            2782     104.568E-03     106.750E-03
            2086            2783     66.1058E-03     68.0766E-03
            2086            2789     107.439E-03     110.523E-03
            2086            2790     67.0353E-03     70.5629E-03
            2087            2783     66.1058E-03     68.0766E-03
            2087            2784     39.7793E-03     40.5308E-03
            2087            2790     67.0353E-03     70.5629E-03
            2087            2791     39.0604E-03     42.7532E-03
            2088            2784     39.7793E-03     40.5308E-03
            2088            2785     45.0455E-03     46.6165E-03
            2088            2791     39.0604E-03     42.7532E-03
            2088            2792     45.7741E-03     49.9704E-03
            2089            2785     45.0455E-03     46.6165E-03
            2089            2786     78.0073E-03     80.4444E-03
            2089            2792     45.7741E-03     49.9704E-03
            2089            2793     80.5778E-03     84.0942E-03
            2090            2786     78.0073E-03     80.4444E-03
            2090            2787     118.433E-03     119.232E-03
            2090            2793     80.5778E-03     84.0942E-03
            2090            2794     122.083E-03     122.998E-03
            2091             111     143.607E-03     142.660E-03
            2091             112     139.235E-03     138.784E-03
            2091            2787     118.433E-03     119.232E-03
            2091            2794     122.083E-03     122.998E-03
            2092             486     176.079E-03     176.442E-03
            2092             487     170.468E-03     168.821E-03
            2092            2788     149.223E-03     149.580E-03
            2092            2795     154.235E-03     155.982E-03
            2093            2788     149.223E-03     149.580E-03
            2093            2789     107.439E-03     110.523E-03
            2093            2795     154.235E-03     155.982E-03
            2093            2796     109.054E-03     112.012E-03
            2094            2789     107.439E-03     110.523E-03
            2094            2790     67.0353E-03     70.5629E-03
            2094            2796     109.054E-03     112.012E-03
            2094            2797     65.3202E-03     68.4291E-03
            2095            2790     67.0353E-03     70.5629E-03
            2095            2791     39.0604E-03     42.7532E-03
            2095            2797     65.3202E-03     68.4291E-03
            2095            2798     36.3732E-03     41.0272E-03
            2096            2791     39.0604E-03     42.7532E-03
            2096            2792     45.7741E-03     49.9704E-03
            2096            2798     36.3732E-03     41.0272E-03
            2096            2799     43.7123E-03     48.8080E-03
            2097            2792     45.7741E-03     49.9704E-03
            2097            2793     80.5778E-03     84.0942E-03
            2097            2799     43.7123E-03     48.8080E-03
            2097            2800     82.1461E-03     86.0797E-03
            2098            2793     80.5778E-03     84.0942E-03
            2098            2794     122.083E-03     122.998E-03
            2098            2800     82.1461E-03     86.0797E-03
            2098            2801     126.750E-03     128.855E-03
            2099             110     148.810E-03     149.469E-03
            2099             111     143.607E-03     142.660E-03
            2099            2794     122.083E-03     122.998E-03
            2099            2801     126.750E-03     128.855E-03
            2100             485     184.849E-03     178.219E-03
            2100             486     176.079E-03     176.442E-03
            2100            2795     154.235E-03     155.982E-03
            2100            2802     157.355E-03     151.754E-03
            2101            2795     154.235E-03     155.982E-03
            2101            2796     109.054E-03     112.012E-03
            2101            2802     157.355E-03     151.754E-03
            2101            2803     105.286E-03     101.352E-03
            2102            2796     109.054E-03     112.012E-03
            2102            2797     65.3202E-03     68.4291E-03
            2102            2803     105.286E-03     101.352E-03
            2102            2804     60.3464E-03     58.9465E-03
            2103            2797     65.3202E-03     68.4291E-03
            2103            2798     36.3732E-03     41.0272E-03
            2103            2804     60.3464E-03     58.9465E-03
            2103            2805     30.0916E-03     32.4587E-03
            2104            2798     36.3732E-03     41.0272E-03
            2104            2799     43.7123E-03     48.8080E-03
            2104            2805     30.0916E-03     32.4587E-03
            2104            2806     37.6239E-03     39.4247E-03
            2105            2799     43.7123E-03     48.8080E-03
            2105            2800     82.1461E-03     86.0797E-03
            2105            2806     37.6239E-03     39.4247E-03
            2105            2807     78.7725E-03     77.2207E-03
            2106            2800     82.1461E-03     86.0797E-03
            2106            2801     126.750E-03     128.855E-03
            2106            2807     78.7725E-03     77.2207E-03
            2106            2808     129.154E-03     125.528E-03
            2107             109     155.809E-03     151.025E-03
            2107             110     148.810E-03     149.469E-03
            2107            2801     126.750E-03     128.855E-03
            2107            2808     129.154E-03     125.528E-03
            2108              25     186.857E-03     152.443E-03
            2108             484     161.419E-03     129.286E-03
            2108             485     184.849E-03     178.219E-03
            2108            2802     157.355E-03     151.754E-03
            2109             483     113.363E-03     87.1786E-03
            2109             484     161.419E-03     129.286E-03
            2109            2802     157.355E-03     151.754E-03
            2109            2803     105.286E-03     101.352E-03
            2110             482     70.3854E-03     52.5783E-03
            2110             483     113.363E-03     87.1786E-03
            2110            2803     105.286E-03     101.352E-03
            2110            2804     60.3464E-03     58.9465E-03
            2111             481     39.1480E-03     33.9017E-03
            2111             482     70.3854E-03     52.5783E-03
            2111            2804     60.3464E-03     58.9465E-03
            2111            2805     30.0916E-03     32.4587E-03
            2112             480     42.4445E-03     46.0014E-03
            2112             481     39.1480E-03     33.9017E-03
            2112            2805     30.0916E-03     32.4587E-03
            2112            2806     37.6239E-03     39.4247E-03
            2113             479     77.6833E-03     80.2044E-03
            2113             480     42.4445E-03     46.0014E-03
            2113            2806     37.6239E-03     39.4247E-03
            2113            2807     78.7725E-03     77.2207E-03
            2114             478     122.987E-03     121.492E-03
            2114             479     77.6833E-03     80.2044E-03
            2114            2807     78.7725E-03     77.2207E-03
            2114            2808     129.154E-03     125.528E-03
            2115               6     147.227E-03     143.704E-03
            2115             109     155.809E-03     151.025E-03
            2115             478     122.987E-03     121.492E-03
            2115            2808     129.154E-03     125.528E-03
            2116               3     16.2096E-03     16.5378E-03
            2116              50     1.22900E-03     1.21966E-03
            2116             477     17.5494E-03     17.6128E-03
            2116            2809     1.38493E-03     1.39178E-03
            2117             476     19.2722E-03     19.1045E-03
            2117             477     17.5494E-03     17.6128E-03
            2117            2809     1.38493E-03     1.39178E-03
            2117            2810     1.51627E-03     1.53567E-03
            2118             475     20.1016E-03     19.9398E-03
            2118             476     19.2722E-03     19.1045E-03
            2118            2810     1.51627E-03     1.53567E-03
            2118            2811     1.48393E-03     1.50075E-03
            2119             474     20.5004E-03     20.3574E-03
            2119             475     20.1016E-03     19.9398E-03
            2119            2811     1.48393E-03     1.50075E-03
            2119            2812     1.47620E-03     1.49406E-03
            2120             473     19.9782E-03     19.8518E-03
            2120             474     20.5004E-03     20.3574E-03
            2120            2812     1.47620E-03     1.49406E-03
            2120            2813     1.48393E-03     1.50075E-03
            2121             472     18.9612E-03     18.8936E-03
            2121             473     19.9782E-03     19.8518E-03
            2121            2813     1.48393E-03     1.50075E-03
            2121            2814     1.51627E-03     1.53567E-03
            2122             471     16.9457E-03     16.9932E-03
            2122             472     18.9612E-03     18.8936E-03
            2122            2814     1.51627E-03     1.53567E-03
            2122            2815     1.38493E-03     1.39178E-03
            2123              23     15.4726E-03     15.5463E-03
            2123             456     1.22900E-03     1.21966E-03
            2123             471     16.9457E-03     16.9932E-03
            2123            2815     1.38493E-03     1.39178E-03
            2124              50     1.22900E-03     1.21966E-03
            2124              51     1.11508E-03     1.11909E-03
            2124            2809     1.38493E-03     1.39178E-03
            2124            2816     1.32472E-03     1.33722E-03
            2125            2809     1.38493E-03     1.39178E-03
            2125            2810     1.51627E-03     1.53567E-03
            2125            2816     1.32472E-03     1.33722E-03
            2125            2817     1.52186E-03     1.54137E-03
            2126            2810     1.51627E-03     1.53567E-03
            2126            2811     1.48393E-03     1.50075E-03
            2126            2817     1.52186E-03     1.54137E-03
            2126            2818     1.50384E-03     1.52214E-03
            2127            2811     1.48393E-03     1.50075E-03
            2127            2812     1.47620E-03     1.49406E-03
            2127            2818     1.50384E-03     1.52214E-03
            2127            2819     1.49832E-03     1.51688E-03
            2128            2812     1.47620E-03     1.49406E-03
            2128            2813     1.48393E-03     1.50075E-03
            2128            2819     1.49832E-03     1.51688E-03
            2128            2820     1.50384E-03     1.52214E-03
            2129            2813     1.48393E-03     1.50075E-03
            2129            2814     1.51627E-03     1.53567E-03
            2129            2820     1.50384E-03     1.52214E-03
            2129            2821     1.52186E-03     1.54137E-03
            2130            2814     1.51627E-03     1.53567E-03
            2130            2815     1.38493E-03     1.39178E-03
            2130            2821     1.52186E-03     1.54137E-03
            2130            2822     1.32472E-03     1.33722E-03
            2131             456     1.22900E-03     1.21966E-03
            2131             457     1.11508E-03     1.11909E-03
            2131            2815     1.38493E-03     1.39178E-03
            2131            2822     1.32472E-03     1.33722E-03
            2132               4     1.09082E-03     1.09577E-03
            2132              51     1.11508E-03     1.11909E-03
            2132             538     1.27865E-03     1.28572E-03
            2132            2816     1.32472E-03     1.33722E-03
            2133             537     1.49600E-03     1.50777E-03
            2133             538     1.27865E-03     1.28572E-03
            2133            2816     1.32472E-03     1.33722E-03
            2133            2817     1.52186E-03     1.54137E-03
            2134             536     1.51859E-03     1.53228E-03
            2134             537     1.49600E-03     1.50777E-03
            2134            2817     1.52186E-03     1.54137E-03
            2134            2818     1.50384E-03     1.52214E-03
            2135             535     1.51167E-03     1.52469E-03
            2135             536     1.51859E-03     1.53228E-03
            2135            2818     1.50384E-03     1.52214E-03
            2135            2819     1.49832E-03     1.51688E-03
            2136             534     1.51859E-03     1.53228E-03
            2136             535     1.51167E-03     1.52469E-03
            2136            2819     1.49832E-03     1.51688E-03
            2136            2820     1.50384E-03     1.52214E-03
            2137             533     1.49600E-03     1.50777E-03
            2137             534     1.51859E-03     1.53228E-03
            2137            2820     1.50384E-03     1.52214E-03
            2137            2821     1.52186E-03     1.54137E-03
            2138             532     1.27865E-03     1.28572E-03
            2138             533     1.49600E-03     1.50777E-03
            2138            2821     1.52186E-03     1.54137E-03
            2138            2822     1.32472E-03     1.33722E-03
            2139              24     1.09082E-03     1.09577E-03
            2139             457     1.11508E-03     1.11909E-03
            2139             532     1.27865E-03     1.28572E-03
            2139            2822     1.32472E-03     1.33722E-03
            3835              27     175.426E-03     180.687E-03
            3835             723     142.160E-03     146.899E-03
            3835             742     178.059E-03     173.825E-03
            3835            4247     148.305E-03     145.978E-03
            3836             723     142.160E-03     146.899E-03
            3836             724     85.2358E-03     90.4508E-03
            3836            4247     148.305E-03     145.978E-03
            3836            4248     92.7939E-03     92.9665E-03
            3837             724     85.2358E-03     90.4508E-03
            3837             725     40.6165E-03     47.7180E-03
            3837            4248     92.7939E-03     92.9665E-03
            3837            4249     48.8931E-03     50.9853E-03
            3838             725     40.6165E-03     47.7180E-03
            3838             726     27.0186E-03     27.1469E-03
            3838            4249     48.8931E-03     50.9853E-03
            3838            4250     36.9527E-03     38.9850E-03
            3839             726     27.0186E-03     27.1469E-03
            3839             727     56.7993E-03     47.7189E-03
            3839            4250     36.9527E-03     38.9850E-03
            3839            4251     63.8747E-03     63.0921E-03
            3840             727     56.7993E-03     47.7189E-03
            3840             728     103.266E-03     91.4264E-03
            3840            4251     63.8747E-03     63.0921E-03
            3840            4252     110.976E-03     108.347E-03
            3841             728     103.266E-03     91.4264E-03
            3841             729     162.088E-03     147.454E-03
            3841            4252     110.976E-03     108.347E-03
            3841            4253     167.470E-03     162.828E-03
            3842               8     196.860E-03     180.846E-03
            3842             189     197.580E-03     191.344E-03
            3842             729     162.088E-03     147.454E-03
            3842            4253     167.470E-03     162.828E-03
            3843             741     168.229E-03     169.779E-03
            3843             742     178.059E-03     173.825E-03
            3843            4247     148.305E-03     145.978E-03
            3843            4254     144.732E-03     148.248E-03
            3844            4247     148.305E-03     145.978E-03
            3844            4248     92.7939E-03     92.9665E-03
            3844            4254     144.732E-03     148.248E-03
            3844            4255     97.3401E-03     102.931E-03
            3845            4248     92.7939E-03     92.9665E-03
            3845            4249     48.8931E-03     50.9853E-03
            3845            4255     97.3401E-03     102.931E-03
            3845            4256     56.4293E-03     61.0427E-03
            3846            4249     48.8931E-03     50.9853E-03
            3846            4250     36.9527E-03     38.9850E-03
            3846            4256     56.4293E-03     61.0427E-03
            3846            4257     44.6393E-03     47.6528E-03
            3847            4250     36.9527E-03     38.9850E-03
            3847            4251     63.8747E-03     63.0921E-03
            3847            4257     44.6393E-03     47.6528E-03
            3847            4258     70.2100E-03     73.6540E-03
            3848            4251     63.8747E-03     63.0921E-03
            3848            4252     110.976E-03     108.347E-03
            3848            4258     70.2100E-03     73.6540E-03
            3848            4259     115.064E-03     119.781E-03
            3849            4252     110.976E-03     108.347E-03
            3849            4253     167.470E-03     162.828E-03
            3849            4259     115.064E-03     119.781E-03
            3849            4260     162.836E-03     166.027E-03
            3850             188     186.097E-03     187.435E-03
            3850             189     197.580E-03     191.344E-03
            3850            4253     167.470E-03     162.828E-03
            3850            4260     162.836E-03     166.027E-03
            3851             740     159.740E-03     160.039E-03
            3851             741     168.229E-03     169.779E-03
            3851            4254     144.732E-03     148.248E-03
            3851            4261     137.813E-03     140.911E-03
            3852            4254     144.732E-03     148.248E-03
            3852            4255     97.3401E-03     102.931E-03
            3852            4261     137.813E-03     140.911E-03
            3852            4262     95.8543E-03     101.409E-03
            3853            4255     97.3401E-03     102.931E-03
            3853            4256     56.4293E-03     61.0427E-03
            3853            4262     95.8543E-03     101.409E-03
            3853            4263     59.5230E-03     62.1631E-03
            3854            4256     56.4293E-03     61.0427E-03
            3854            4257     44.6393E-03     47.6528E-03
            3854            4263     59.5230E-03     62.1631E-03
            3854            4264     47.8279E-03     48.2413E-03
            3855            4257     44.6393E-03     47.6528E-03
            3855            4258     70.2100E-03     73.6540E-03
            3855            4264     47.8279E-03     48.2413E-03
            3855            4265     72.3827E-03     75.4966E-03
            3856            4258     70.2100E-03     73.6540E-03
            3856            4259     115.064E-03     119.781E-03
            3856            4265     72.3827E-03     75.4966E-03
            3856            4266     113.040E-03     118.583E-03
            3857            4259     115.064E-03     119.781E-03
            3857            4260     162.836E-03     166.027E-03
            3857            4266     113.040E-03     118.583E-03
            3857            4267     155.444E-03     158.184E-03
            3858             187     177.141E-03     177.005E-03
            3858             188     186.097E-03     187.435E-03
            3858            4260     162.836E-03     166.027E-03
            3858            4267     155.444E-03     158.184E-03
            3859             739     151.966E-03     155.174E-03
            3859             740     159.740E-03     160.039E-03
            3859            4261     137.813E-03     140.911E-03
            3859            4268     132.324E-03     136.147E-03
            3860            4261     137.813E-03     140.911E-03
            3860            4262     95.8543E-03     101.409E-03
            3860            4268     132.324E-03     136.147E-03
            3860            4269     93.1881E-03     95.1714E-03
            3861            4262     95.8543E-03     101.409E-03
            3861            4263     59.5230E-03     62.1631E-03
            3861            4269     93.1881E-03     95.1714E-03
            3861            4270     59.6097E-03     57.5925E-03
            3862            4263     59.5230E-03     62.1631E-03
            3862            4264     47.8279E-03     48.2413E-03
            3862            4270     59.6097E-03     57.5925E-03
            3862            4271     49.6777E-03     46.7986E-03
            3863            4264     47.8279E-03     48.2413E-03
            3863            4265     72.3827E-03     75.4966E-03
            3863            4271     49.6777E-03     46.7986E-03
            3863            4272     71.1367E-03     70.5721E-03
            3864            4265     72.3827E-03     75.4966E-03
            3864            4266     113.040E-03     118.583E-03
            3864            4272     71.1367E-03     70.5721E-03
            3864            4273     109.111E-03     112.058E-03
            3865            4266     113.040E-03     118.583E-03
            3865            4267     155.444E-03     158.184E-03
            3865            4273     109.111E-03     112.058E-03
            3865            4274     149.647E-03     153.352E-03
            3866             186     169.516E-03     172.098E-03
            3866             187     177.141E-03     177.005E-03
            3866            4267     155.444E-03     158.184E-03
            3866            4274     149.647E-03     153.352E-03
            3867             738     142.065E-03     136.783E-03
            3867             739     151.966E-03     155.174E-03
            3867            4268     132.324E-03     136.147E-03
            3867            4275     124.520E-03     118.562E-03
            3868            4268     132.324E-03     136.147E-03
            3868            4269     93.1881E-03     95.1714E-03
            3868            4275     124.520E-03     118.562E-03
            3868            4276     89.9570E-03     83.7019E-03
            3869            4269     93.1881E-03     95.1714E-03
            3869            4270     59.6097E-03     57.5925E-03
            3869            4276     89.9570E-03     83.7019E-03
            3869            4277     61.6115E-03     56.4691E-03
            3870            4270     59.6097E-03     57.5925E-03
            3870            4271     49.6777E-03     46.7986E-03
            3870            4277     61.6115E-03     56.4691E-03
            3870            4278     53.3668E-03     49.5089E-03
            3871            4271     49.6777E-03     46.7986E-03
            3871            4272     71.1367E-03     70.5721E-03
            3871            4278     53.3668E-03     49.5089E-03
            3871            4279     70.8222E-03     67.1641E-03
            3872            4272     71.1367E-03     70.5721E-03
            3872            4273     109.111E-03     112.058E-03
            3872            4279     70.8222E-03     67.1641E-03
            3872            4280     103.324E-03     99.1497E-03
            3873            4273     109.111E-03     112.058E-03
            3873            4274     149.647E-03     153.352E-03
            3873            4280     103.324E-03     99.1497E-03
            3873            4281     140.255E-03     135.975E-03
            3874             185     159.057E-03     154.838E-03
            3874             186     169.516E-03     172.098E-03
            3874            4274     149.647E-03     153.352E-03
            3874            4281     140.255E-03     135.975E-03
            3875             737     136.981E-03     128.180E-03
            3875             738     142.065E-03     136.783E-03
            3875            4275     124.520E-03     118.562E-03
            3875            4282     118.327E-03     110.185E-03
            3876            4275     124.520E-03     118.562E-03
            3876            4276     89.9570E-03     83.7019E-03
            3876            4282     118.327E-03     110.185E-03
            3876            4283     82.7788E-03     77.1169E-03
            3877            4276     89.9570E-03     83.7019E-03
            3877            4277     61.6115E-03     56.4691E-03
            3877            4283     82.7788E-03     77.1169E-03
            3877            4284     53.0767E-03     50.1961E-03
            3878            4277     61.6115E-03     56.4691E-03
            3878            4278     53.3668E-03     49.5089E-03
            3878            4284     53.0767E-03     50.1961E-03
            3878            4285     43.6733E-03     41.9182E-03
            3879            4278     53.3668E-03     49.5089E-03
            3879            4279     70.8222E-03     67.1641E-03
            3879            4285     43.6733E-03     41.9182E-03
            3879            4286     62.3785E-03     60.0277E-03
            3880            4279     70.8222E-03     67.1641E-03
            3880            4280     103.324E-03     99.1497E-03
            3880            4286     62.3785E-03     60.0277E-03
            3880            4287     95.1505E-03     90.5111E-03
            3881            4280     103.324E-03     99.1497E-03
            3881            4281     140.255E-03     135.975E-03
            3881            4287     95.1505E-03     90.5111E-03
            3881            4288     132.017E-03     125.516E-03
            3882             184     151.412E-03     144.577E-03
            3882             185     159.057E-03     154.838E-03
            3882            4281     140.255E-03     135.975E-03
            3882            4288     132.017E-03     125.516E-03
            3883              34     152.350E-03     146.506E-03
            3883             736     126.641E-03     121.747E-03
            3883             737     136.981E-03     128.180E-03
            3883            4282     118.327E-03     110.185E-03
            3884             735     80.6138E-03     77.7534E-03
            3884             736     126.641E-03     121.747E-03
            3884            4282     118.327E-03     110.185E-03
            3884            4283     82.7788E-03     77.1169E-03
            3885             734     44.1636E-03     43.7482E-03
            3885             735     80.6138E-03     77.7534E-03
            3885            4283     82.7788E-03     77.1169E-03
            3885            4284     53.0767E-03     50.1961E-03
            3886             733     32.0726E-03     32.5635E-03
            3886             734     44.1636E-03     43.7482E-03
            3886            4284     53.0767E-03     50.1961E-03
            3886            4285     43.6733E-03     41.9182E-03
            3887             732     54.2163E-03     52.8340E-03
            3887             733     32.0726E-03     32.5635E-03
            3887            4285     43.6733E-03     41.9182E-03
            3887            4286     62.3785E-03     60.0277E-03
            3888             731     93.0343E-03     89.1088E-03
            3888             732     54.2163E-03     52.8340E-03
            3888            4286     62.3785E-03     60.0277E-03
            3888            4287     95.1505E-03     90.5111E-03
            3889             730     140.055E-03     133.887E-03
            3889             731     93.0343E-03     89.1088E-03
            3889            4287     95.1505E-03     90.5111E-03
            3889            4288     132.017E-03     125.516E-03
            3890              10     166.362E-03     159.073E-03
            3890             184     151.412E-03     144.577E-03
            3890             730     140.055E-03     133.887E-03
            3890            4288     132.017E-03     125.516E-03
            3891              25     186.857E-03     152.443E-03
            3891             484     161.419E-03     129.286E-03
            3891             547     166.415E-03     164.610E-03
            3891            4289     144.392E-03     142.876E-03
            3892             483     113.363E-03     87.1786E-03
            3892             484     161.419E-03     129.286E-03
            3892            4289     144.392E-03     142.876E-03
            3892            4290     101.458E-03     100.952E-03
            3893             482     70.3854E-03     52.5783E-03
            3893             483     113.363E-03     87.1786E-03
            3893            4290     101.458E-03     100.952E-03
            3893            4291     61.8814E-03     62.8063E-03
            3894             481     39.1480E-03     33.9017E-03
            3894             482     70.3854E-03     52.5783E-03
            3894            4291     61.8814E-03     62.8063E-03
            3894            4292     39.3670E-03     36.5280E-03
            3895             480     42.4445E-03     46.0014E-03
            3895             481     39.1480E-03     33.9017E-03
            3895            4292     39.3670E-03     36.5280E-03
            3895            4293     49.5626E-03     44.3854E-03
            3896             479     77.6833E-03     80.2044E-03
            3896             480     42.4445E-03     46.0014E-03
            3896            4293     49.5626E-03     44.3854E-03
            3896            4294     83.2261E-03     81.0893E-03
            3897             478     122.987E-03     121.492E-03
            3897             479     77.6833E-03     80.2044E-03
            3897            4294     83.2261E-03     81.0893E-03
            3897            4295     124.106E-03     123.224E-03
            3898               6     147.227E-03     143.704E-03
            3898             172     145.366E-03     144.834E-03
            3898             478     122.987E-03     121.492E-03
            3898            4295     124.106E-03     123.224E-03
            3899             547     166.415E-03     164.610E-03
            3899             548     162.592E-03     162.028E-03
            3899            4289     144.392E-03     142.876E-03
            3899            4296     136.696E-03     138.182E-03
            3900            4289     144.392E-03     142.876E-03
            3900            4290     101.458E-03     100.952E-03
            3900            4296     136.696E-03     138.182E-03
            3900            4297     90.8134E-03     96.3655E-03
            3901            4290     101.458E-03     100.952E-03
            3901            4291     61.8814E-03     62.8063E-03
            3901            4297     90.8134E-03     96.3655E-03
            3901            4298     53.6548E-03     61.2208E-03
            3902            4291     61.8814E-03     62.8063E-03
            3902            4292     39.3670E-03     36.5280E-03
            3902            4298     53.6548E-03     61.2208E-03
            3902            4299     36.5730E-03     36.5560E-03
            3903            4292     39.3670E-03     36.5280E-03
            3903            4293     49.5626E-03     44.3854E-03
            3903            4299     36.5730E-03     36.5560E-03
            3903            4300     53.2319E-03     45.2496E-03
            3904            4293     49.5626E-03     44.3854E-03
            3904            4294     83.2261E-03     81.0893E-03
            3904            4300     53.2319E-03     45.2496E-03
            3904            4301     88.8188E-03     80.3510E-03
            3905            4294     83.2261E-03     81.0893E-03
            3905            4295     124.106E-03     123.224E-03
            3905            4301     88.8188E-03     80.3510E-03
            3905            4302     132.325E-03     124.024E-03
            3906             171     156.812E-03     148.779E-03
            3906             172     145.366E-03     144.834E-03
            3906            4295     124.106E-03     123.224E-03
            3906            4302     132.325E-03     124.024E-03
            3907             548     162.592E-03     162.028E-03
            3907             549     167.984E-03     151.157E-03
            3907            4296     136.696E-03     138.182E-03
            3907            4303     146.773E-03     128.197E-03
            3908            4296     136.696E-03     138.182E-03
            3908            4297     90.8134E-03     96.3655E-03
            3908            4303     146.773E-03     128.197E-03
            3908            4304     104.057E-03     84.8488E-03
            3909            4297     90.8134E-03     96.3655E-03
            3909            4298     53.6548E-03     61.2208E-03
            3909            4304     104.057E-03     84.8488E-03
            3909            4305     64.9250E-03     50.1865E-03
            3910            4298     53.6548E-03     61.2208E-03
            3910            4299     36.5730E-03     36.5560E-03
            3910            4305     64.9250E-03     50.1865E-03
            3910            4306     44.9812E-03     39.6687E-03
            3911            4299     36.5730E-03     36.5560E-03
            3911            4300     53.2319E-03     45.2496E-03
            3911            4306     44.9812E-03     39.6687E-03
            3911            4307     58.5082E-03     60.2773E-03
            3912            4300     53.2319E-03     45.2496E-03
            3912            4301     88.8188E-03     80.3510E-03
            3912            4307     58.5082E-03     60.2773E-03
            3912            4308     95.7318E-03     97.5193E-03
            3913            4301     88.8188E-03     80.3510E-03
            3913            4302     132.325E-03     124.024E-03
            3913            4308     95.7318E-03     97.5193E-03
            3913            4309     139.793E-03     139.331E-03
            3914             170     162.474E-03     160.751E-03
            3914             171     156.812E-03     148.779E-03
            3914            4302     132.325E-03     124.024E-03
            3914            4309     139.793E-03     139.331E-03
            3915             549     167.984E-03     151.157E-03
            3915             550     164.937E-03     173.324E-03
            3915            4303     146.773E-03     128.197E-03
            3915            4310     145.204E-03     151.092E-03
            3916            4303     146.773E-03     128.197E-03
            3916            4304     104.057E-03     84.8488E-03
            3916            4310     145.204E-03     151.092E-03
            3916            4311     103.782E-03     103.243E-03
            3917            4304     104.057E-03     84.8488E-03
            3917            4305     64.9250E-03     50.1865E-03
            3917            4311     103.782E-03     103.243E-03
            3917            4312     61.1090E-03     54.8841E-03
            3918            4305     64.9250E-03     50.1865E-03
            3918            4306     44.9812E-03     39.6687E-03
            3918            4312     61.1090E-03     54.8841E-03
            3918            4313     39.7359E-03     34.5242E-03
            3919            4306     44.9812E-03     39.6687E-03
            3919            4307     58.5082E-03     60.2773E-03
            3919            4313     39.7359E-03     34.5242E-03
            3919            4314     59.8970E-03     60.6238E-03
            3920            4307     58.5082E-03     60.2773E-03
            3920            4308     95.7318E-03     97.5193E-03
            3920            4314     59.8970E-03     60.6238E-03
            3920            4315     103.317E-03     108.749E-03
            3921            4308     95.7318E-03     97.5193E-03
            3921            4309     139.793E-03     139.331E-03
            3921            4315     103.317E-03     108.749E-03
            3921            4316     148.092E-03     153.046E-03
            3922             169     169.997E-03     172.935E-03
            3922             170     162.474E-03     160.751E-03
            3922            4309     139.793E-03     139.331E-03
            3922            4316     148.092E-03     153.046E-03
            3923             550     164.937E-03     173.324E-03
            3923             551     176.109E-03     173.648E-03
            3923            4310     145.204E-03     151.092E-03
            3923            4317     150.837E-03     154.554E-03
            3924            4310     145.204E-03     151.092E-03
            3924            4311     103.782E-03     103.243E-03
            3924            4317     150.837E-03     154.554E-03
            3924            4318     100.611E-03     109.824E-03
            3925            4311     103.782E-03     103.243E-03
            3925            4312     61.1090E-03     54.8841E-03
            3925            4318     100.611E-03     109.824E-03
            3925            4319     54.4764E-03     58.7818E-03
            3926            4312     61.1090E-03     54.8841E-03
            3926            4313     39.7359E-03     34.5242E-03
            3926            4319     54.4764E-03     58.7818E-03
            3926            4320     35.5723E-03     32.9533E-03
            3927            4313     39.7359E-03     34.5242E-03
            3927            4314     59.8970E-03     60.6238E-03
            3927            4320     35.5723E-03     32.9533E-03
            3927            4321     59.9610E-03     57.7333E-03
            3928            4314     59.8970E-03     60.6238E-03
            3928            4315     103.317E-03     108.749E-03
            3928            4321     59.9610E-03     57.7333E-03
            3928            4322     106.478E-03     109.347E-03
            3929            4315     103.317E-03     108.749E-03
            3929            4316     148.092E-03     153.046E-03
            3929            4322     106.478E-03     109.347E-03
            3929            4323     154.008E-03     157.038E-03
            3930             168     177.133E-03     178.321E-03
            3930             169     169.997E-03     172.935E-03
            3930            4316     148.092E-03     153.046E-03
            3930            4323     154.008E-03     157.038E-03
            3931             551     176.109E-03     173.648E-03
            3931             552     175.435E-03     183.263E-03
            3931            4317     150.837E-03     154.554E-03
            3931            4324     145.689E-03     156.074E-03
            3932            4317     150.837E-03     154.554E-03
            3932            4318     100.611E-03     109.824E-03
            3932            4324     145.689E-03     156.074E-03
            3932            4325     89.9624E-03     103.374E-03
            3933            4318     100.611E-03     109.824E-03
            3933            4319     54.4764E-03     58.7818E-03
            3933            4325     89.9624E-03     103.374E-03
            3933            4326     43.2470E-03     55.0897E-03
            3934            4319     54.4764E-03     58.7818E-03
            3934            4320     35.5723E-03     32.9533E-03
            3934            4326     43.2470E-03     55.0897E-03
            3934            4327     28.5559E-03     28.2948E-03
            3935            4320     35.5723E-03     32.9533E-03
            3935            4321     59.9610E-03     57.7333E-03
            3935            4327     28.5559E-03     28.2948E-03
            3935            4328     56.2512E-03     46.6921E-03
            3936            4321     59.9610E-03     57.7333E-03
            3936            4322     106.478E-03     109.347E-03
            3936            4328     56.2512E-03     46.6921E-03
            3936            4329     103.201E-03     95.5057E-03
            3937            4322     106.478E-03     109.347E-03
            3937            4323     154.008E-03     157.038E-03
            3937            4329     103.201E-03     95.5057E-03
            3937            4330     157.059E-03     150.459E-03
            3938             167     185.620E-03     179.018E-03
            3938             168     177.133E-03     178.321E-03
            3938            4323     154.008E-03     157.038E-03
            3938            4330     157.059E-03     150.459E-03
            3939              27     175.426E-03     180.687E-03
            3939             552     175.435E-03     183.263E-03
            3939             723     142.160E-03     146.899E-03
            3939            4324     145.689E-03     156.074E-03
            3940             723     142.160E-03     146.899E-03
            3940             724     85.2358E-03     90.4508E-03
            3940            4324     145.689E-03     156.074E-03
            3940            4325     89.9624E-03     103.374E-03
            3941             724     85.2358E-03     90.4508E-03
            3941             725     40.6165E-03     47.7180E-03
            3941            4325     89.9624E-03     103.374E-03
            3941            4326     43.2470E-03     55.0897E-03
            3942             725     40.6165E-03     47.7180E-03
            3942             726     27.0186E-03     27.1469E-03
            3942            4326     43.2470E-03     55.0897E-03
            3942            4327     28.5559E-03     28.2948E-03
            3943             726     27.0186E-03     27.1469E-03
            3943             727     56.7993E-03     47.7189E-03
            3943            4327     28.5559E-03     28.2948E-03
            3943            4328     56.2512E-03     46.6921E-03
            3944             727     56.7993E-03     47.7189E-03
            3944             728     103.266E-03     91.4264E-03
            3944            4328     56.2512E-03     46.6921E-03
            3944            4329     103.201E-03     95.5057E-03
            3945             728     103.266E-03     91.4264E-03
            3945             729     162.088E-03     147.454E-03
            3945            4329     103.201E-03     95.5057E-03
            3945            4330     157.059E-03     150.459E-03
            3946               8     196.860E-03     180.846E-03
            3946             167     185.620E-03     179.018E-03
            3946             729     162.088E-03     147.454E-03
            3946            4330     157.059E-03     150.459E-03
            5375              13     19.1554E-03     19.0507E-03
            5375             201     1.76504E-03     1.73061E-03
            5375             956     21.4545E-03     21.3672E-03
            5375            5519     1.69745E-03     1.68925E-03
            5376             956     21.4545E-03     21.3672E-03
            5376             957     24.2321E-03     24.1571E-03
            5376            5519     1.69745E-03     1.68925E-03
            5376            5520     1.57881E-03     1.59935E-03
            5377             957     24.2321E-03     24.1571E-03
            5377             958     25.2840E-03     25.2280E-03
            5377            5520     1.57881E-03     1.59935E-03
            5377            5521     1.53179E-03     1.55660E-03
            5378             958     25.2840E-03     25.2280E-03
            5378             959     25.8383E-03     25.8461E-03
            5378            5521     1.53179E-03     1.55660E-03
            5378            5522     1.53583E-03     1.56238E-03
            5379             959     25.8383E-03     25.8461E-03
            5379             960     25.2595E-03     25.2293E-03
            5379            5522     1.53583E-03     1.56238E-03
            5379            5523     1.53179E-03     1.55660E-03
            5380             960     25.2595E-03     25.2293E-03
            5380             961     24.1602E-03     24.1437E-03
            5380            5523     1.53179E-03     1.55660E-03
            5380            5524     1.57881E-03     1.59935E-03
            5381             961     24.1602E-03     24.1437E-03
            5381             962     21.2870E-03     21.2372E-03
            5381            5524     1.57881E-03     1.59935E-03
            5381            5525     1.69745E-03     1.68925E-03
            5382              15     18.9534E-03     18.7790E-03
            5382             949     1.76504E-03     1.73061E-03
            5382             962     21.2870E-03     21.2372E-03
            5382            5525     1.69745E-03     1.68925E-03
            5383             201     1.76504E-03     1.73061E-03
            5383             202     1.38798E-03     1.39548E-03
            5383            5519     1.69745E-03     1.68925E-03
            5383            5526     1.47975E-03     1.49397E-03
            5384            5519     1.69745E-03     1.68925E-03
            5384            5520     1.57881E-03     1.59935E-03
            5384            5526     1.47975E-03     1.49397E-03
            5384            5527     1.59815E-03     1.62910E-03
            5385            5520     1.57881E-03     1.59935E-03
            5385            5521     1.53179E-03     1.55660E-03
            5385            5527     1.59815E-03     1.62910E-03
            5385            5528     1.63306E-03     1.67185E-03
            5386            5521     1.53179E-03     1.55660E-03
            5386            5522     1.53583E-03     1.56238E-03
            5386            5528     1.63306E-03     1.67185E-03
            5386            5529     1.64134E-03     1.67796E-03
            5387            5522     1.53583E-03     1.56238E-03
            5387            5523     1.53179E-03     1.55660E-03
            5387            5529     1.64134E-03     1.67796E-03
            5387            5530     1.63306E-03     1.67185E-03
            5388            5523     1.53179E-03     1.55660E-03
            5388            5524     1.57881E-03     1.59935E-03
            5388            5530     1.63306E-03     1.67185E-03
            5388            5531     1.59815E-03     1.62910E-03
            5389            5524     1.57881E-03     1.59935E-03
            5389            5525     1.69745E-03     1.68925E-03
            5389            5531     1.59815E-03     1.62910E-03
            5389            5532     1.47975E-03     1.49397E-03
            5390             949     1.76504E-03     1.73061E-03
            5390             950     1.38798E-03     1.39548E-03
            5390            5525     1.69745E-03     1.68925E-03
            5390            5532     1.47975E-03     1.49397E-03
            5391             202     1.38798E-03     1.39548E-03
            5391             203     1.15684E-03     1.16209E-03
            5391            5526     1.47975E-03     1.49397E-03
            5391            5533     1.30101E-03     1.31137E-03
            5392            5526     1.47975E-03     1.49397E-03
            5392            5527     1.59815E-03     1.62910E-03
            5392            5533     1.30101E-03     1.31137E-03
            5392            5534     1.54514E-03     1.56591E-03
            5393            5527     1.59815E-03     1.62910E-03
            5393            5528     1.63306E-03     1.67185E-03
            5393            5534     1.54514E-03     1.56591E-03
            5393            5535     1.67728E-03     1.70607E-03
            5394            5528     1.63306E-03     1.67185E-03
            5394            5529     1.64134E-03     1.67796E-03
            5394            5535     1.67728E-03     1.70607E-03
            5394            5536     1.70946E-03     1.74096E-03
            5395            5529     1.64134E-03     1.67796E-03
            5395            5530     1.63306E-03     1.67185E-03
            5395            5536     1.70946E-03     1.74096E-03
            5395            5537     1.67728E-03     1.70607E-03
            5396            5530     1.63306E-03     1.67185E-03
            5396            5531     1.59815E-03     1.62910E-03
            5396            5537     1.67728E-03     1.70607E-03
            5396            5538     1.54514E-03     1.56591E-03
            5397            5531     1.59815E-03     1.62910E-03
            5397            5532     1.47975E-03     1.49397E-03
            5397            5538     1.54514E-03     1.56591E-03
            5397            5539     1.30101E-03     1.31137E-03
            5398             950     1.38798E-03     1.39548E-03
            5398             951     1.15684E-03     1.16209E-03
            5398            5532     1.47975E-03     1.49397E-03
            5398            5539     1.30101E-03     1.31137E-03
            5399             203     1.15684E-03     1.16209E-03
            5399             204     1.01016E-03     1.02909E-03
            5399            5533     1.30101E-03     1.31137E-03
            5399            5540     1.20351E-03     1.22231E-03
            5400            5533     1.30101E-03     1.31137E-03
            5400            5534     1.54514E-03     1.56591E-03
            5400            5540     1.20351E-03     1.22231E-03
            5400            5541     1.51361E-03     1.52866E-03
            5401            5534     1.54514E-03     1.56591E-03
            5401            5535     1.67728E-03     1.70607E-03
            5401            5541     1.51361E-03     1.52866E-03
            5401            5542     1.67142E-03     1.68502E-03
            5402            5535     1.67728E-03     1.70607E-03
            5402            5536     1.70946E-03     1.74096E-03
            5402            5542     1.67142E-03     1.68502E-03
            5402            5543     1.71247E-03     1.72824E-03
            5403            5536     1.70946E-03     1.74096E-03
            5403            5537     1.67728E-03     1.70607E-03
            5403            5543     1.71247E-03     1.72824E-03
            5403            5544     1.67142E-03     1.68502E-03
            5404            5537     1.67728E-03     1.70607E-03
            5404            5538     1.54514E-03     1.56591E-03
            5404            5544     1.67142E-03     1.68502E-03
            5404            5545     1.51361E-03     1.52866E-03
            5405            5538     1.54514E-03     1.56591E-03
            5405            5539     1.30101E-03     1.31137E-03
            5405            5545     1.51361E-03     1.52866E-03
            5405            5546     1.20351E-03     1.22231E-03
            5406             951     1.15684E-03     1.16209E-03
            5406             952     1.01016E-03     1.02909E-03
            5406            5539     1.30101E-03     1.31137E-03
            5406            5546     1.20351E-03     1.22231E-03
            5407             204     1.01016E-03     1.02909E-03
            5407             205     955.962E-06     989.676E-06
            5407            5540     1.20351E-03     1.22231E-03
            5407            5547     1.18735E-03     1.20980E-03
            5408            5540     1.20351E-03     1.22231E-03
            5408            5541     1.51361E-03     1.52866E-03
            5408            5547     1.18735E-03     1.20980E-03
            5408            5548     1.51163E-03     1.52020E-03
            5409            5541     1.51361E-03     1.52866E-03
            5409            5542     1.67142E-03     1.68502E-03
            5409            5548     1.51163E-03     1.52020E-03
            5409            5549     1.63093E-03     1.63444E-03
            5410            5542     1.67142E-03     1.68502E-03
            5410            5543     1.71247E-03     1.72824E-03
            5410            5549     1.63093E-03     1.63444E-03
            5410            5550     1.65734E-03     1.65840E-03
            5411            5543     1.71247E-03     1.72824E-03
            5411            5544     1.67142E-03     1.68502E-03
            5411            5550     1.65734E-03     1.65840E-03
            5411            5551     1.63093E-03     1.63444E-03
            5412            5544     1.67142E-03     1.68502E-03
            5412            5545     1.51361E-03     1.52866E-03
            5412            5551     1.63093E-03     1.63444E-03
            5412            5552     1.51163E-03     1.52020E-03
            5413            5545     1.51361E-03     1.52866E-03
            5413            5546     1.20351E-03     1.22231E-03
            5413            5552     1.51163E-03     1.52020E-03
            5413            5553     1.18735E-03     1.20980E-03
            5414             952     1.01016E-03     1.02909E-03
            5414             953     955.962E-06     989.676E-06
            5414            5546     1.20351E-03     1.22231E-03
            5414            5553     1.18735E-03     1.20980E-03
            5415             205     955.962E-06     989.676E-06
            5415             206     1.06747E-03     1.09268E-03
            5415            5547     1.18735E-03     1.20980E-03
            5415            5554     1.24852E-03     1.26503E-03
            5416            5547     1.18735E-03     1.20980E-03
            5416            5548     1.51163E-03     1.52020E-03
            5416            5554     1.24852E-03     1.26503E-03
            5416            5555     1.47964E-03     1.48268E-03
            5417            5548     1.51163E-03     1.52020E-03
            5417            5549     1.63093E-03     1.63444E-03
            5417            5555     1.47964E-03     1.48268E-03
            5417            5556     1.56284E-03     1.56041E-03
            5418            5549     1.63093E-03     1.63444E-03
            5418            5550     1.65734E-03     1.65840E-03
            5418            5556     1.56284E-03     1.56041E-03
            5418            5557     1.59597E-03     1.59284E-03
            5419            5550     1.65734E-03     1.65840E-03
            5419            5551     1.63093E-03     1.63444E-03
            5419            5557     1.59597E-03     1.59284E-03
            5419            5558     1.56284E-03     1.56041E-03
            5420            5551     1.63093E-03     1.63444E-03
            5420            5552     1.51163E-03     1.52020E-03
            5420            5558     1.56284E-03     1.56041E-03
            5420            5559     1.47964E-03     1.48268E-03
            5421            5552     1.51163E-03     1.52020E-03
            5421            5553     1.18735E-03     1.20980E-03
            5421            5559     1.47964E-03     1.48268E-03
            5421            5560     1.24852E-03     1.26503E-03
            5422             953     955.962E-06     989.676E-06
            5422             954     1.06747E-03     1.09268E-03
            5422            5553     1.18735E-03     1.20980E-03
            5422            5560     1.24852E-03     1.26503E-03
            5423              14     1.15698E-03     1.17003E-03
            5423             206     1.06747E-03     1.09268E-03
            5423             969     1.28482E-03     1.29436E-03
            5423            5554     1.24852E-03     1.26503E-03
            5424             968     1.44832E-03     1.44935E-03
            5424             969     1.28482E-03     1.29436E-03
            5424            5554     1.24852E-03     1.26503E-03
            5424            5555     1.47964E-03     1.48268E-03
            5425             967     1.52642E-03     1.52302E-03
            5425             968     1.44832E-03     1.44935E-03
            5425            5555     1.47964E-03     1.48268E-03
            5425            5556     1.56284E-03     1.56041E-03
            5426             966     1.56885E-03     1.56601E-03
            5426             967     1.52642E-03     1.52302E-03
            5426            5556     1.56284E-03     1.56041E-03
            5426            5557     1.59597E-03     1.59284E-03
            5427             965     1.52642E-03     1.52302E-03
            5427             966     1.56885E-03     1.56601E-03
            5427            5557     1.59597E-03     1.59284E-03
            5427            5558     1.56284E-03     1.56041E-03
            5428             964     1.44832E-03     1.44935E-03
            5428             965     1.52642E-03     1.52302E-03
            5428            5558     1.56284E-03     1.56041E-03
            5428            5559     1.47964E-03     1.48268E-03
            5429             963     1.28482E-03     1.29436E-03
            5429             964     1.44832E-03     1.44935E-03
            5429            5559     1.47964E-03     1.48268E-03
            5429            5560     1.24852E-03     1.26503E-03
            5430              41     1.15698E-03     1.17003E-03
            5430             954     1.06747E-03     1.09268E-03
            5430             963     1.28482E-03     1.29436E-03
            5430            5560     1.24852E-03     1.26503E-03
            6229              34     152.350E-03     146.506E-03
            6229             736     126.641E-03     121.747E-03
            6229             754     161.873E-03     156.744E-03
            6229            6281     135.724E-03     131.973E-03
            6230             735     80.6138E-03     77.7534E-03
            6230             736     126.641E-03     121.747E-03
            6230            6281     135.724E-03     131.973E-03
            6230            6282     87.1294E-03     85.7909E-03
            6231             734     44.1636E-03     43.7482E-03
            6231             735     80.6138E-03     77.7534E-03
            6231            6282     87.1294E-03     85.7909E-03
            6231            6283     50.0309E-03     51.8208E-03
            6232             733     32.0726E-03     32.5635E-03
            6232             734     44.1636E-03     43.7482E-03
            6232            6283     50.0309E-03     51.8208E-03
            6232            6284     38.8239E-03     41.9879E-03
            6233             732     54.2163E-03     52.8340E-03
            6233             733     32.0726E-03     32.5635E-03
            6233            6284     38.8239E-03     41.9879E-03
            6233            6285     59.0839E-03     59.4120E-03
            6234             731     93.0343E-03     89.1088E-03
            6234             732     54.2163E-03     52.8340E-03
            6234            6285     59.0839E-03     59.4120E-03
            6234            6286     99.0494E-03     96.3690E-03
            6235             730     140.055E-03     133.887E-03
            6235             731     93.0343E-03     89.1088E-03
            6235            6286     99.0494E-03     96.3690E-03
            6235            6287     148.903E-03     144.021E-03
            6236              10     166.362E-03     159.073E-03
            6236             284     175.606E-03     169.413E-03
            6236             730     140.055E-03     133.887E-03
            6236            6287     148.903E-03     144.021E-03
            6237             754     161.873E-03     156.744E-03
            6237             755     151.057E-03     150.980E-03
            6237            6281     135.724E-03     131.973E-03
            6237            6288     130.978E-03     132.257E-03
            6238            6281     135.724E-03     131.973E-03
            6238            6282     87.1294E-03     85.7909E-03
            6238            6288     130.978E-03     132.257E-03
            6238            6289     90.5544E-03     93.8881E-03
            6239            6282     87.1294E-03     85.7909E-03
            6239            6283     50.0309E-03     51.8208E-03
            6239            6289     90.5544E-03     93.8881E-03
            6239            6290     56.6852E-03     61.5821E-03
            6240            6283     50.0309E-03     51.8208E-03
            6240            6284     38.8239E-03     41.9879E-03
            6240            6290     56.6852E-03     61.5821E-03
            6240            6291     46.1265E-03     51.4336E-03
            6241            6284     38.8239E-03     41.9879E-03
            6241            6285     59.0839E-03     59.4120E-03
            6241            6291     46.1265E-03     51.4336E-03
            6241            6292     65.2003E-03     69.2413E-03
            6242            6285     59.0839E-03     59.4120E-03
            6242            6286     99.0494E-03     96.3690E-03
            6242            6292     65.2003E-03     69.2413E-03
            6242            6293     102.398E-03     105.226E-03
            6243            6286     99.0494E-03     96.3690E-03
            6243            6287     148.903E-03     144.021E-03
            6243            6293     102.398E-03     105.226E-03
            6243            6294     143.660E-03     144.780E-03
            6244             283     163.833E-03     163.648E-03
            6244             284     175.606E-03     169.413E-03
            6244            6287     148.903E-03     144.021E-03
            6244            6294     143.660E-03     144.780E-03
            6245             755     151.057E-03     150.980E-03
            6245             756     143.165E-03     141.687E-03
            6245            6288     130.978E-03     132.257E-03
            6245            6295     124.160E-03     124.079E-03
            6246            6288     130.978E-03     132.257E-03
            6246            6289     90.5544E-03     93.8881E-03
            6246            6295     124.160E-03     124.079E-03
            6246            6296     88.1322E-03     90.5842E-03
            6247            6289     90.5544E-03     93.8881E-03
            6247            6290     56.6852E-03     61.5821E-03
            6247            6296     88.1322E-03     90.5842E-03
            6247            6297     58.8830E-03     63.1300E-03
            6248            6290     56.6852E-03     61.5821E-03
            6248            6291     46.1265E-03     51.4336E-03
            6248            6297     58.8830E-03     63.1300E-03
            6248            6298     49.4446E-03     54.1311E-03
            6249            6291     46.1265E-03     51.4336E-03
            6249            6292     65.2003E-03     69.2413E-03
            6249            6298     49.4446E-03     54.1311E-03
            6249            6299     67.1997E-03     71.0571E-03
            6250            6292     65.2003E-03     69.2413E-03
            6250            6293     102.398E-03     105.226E-03
            6250            6299     67.1997E-03     71.0571E-03
            6250            6300     99.8536E-03     102.021E-03
            6251            6293     102.398E-03     105.226E-03
            6251            6294     143.660E-03     144.780E-03
            6251            6300     99.8536E-03     102.021E-03
            6251            6301     136.656E-03     136.258E-03
            6252             282     155.772E-03     153.888E-03
            6252             283     163.833E-03     163.648E-03
            6252            6294     143.660E-03     144.780E-03
            6252            6301     136.656E-03     136.258E-03
            6253             756     143.165E-03     141.687E-03
            6253             757     136.957E-03     135.469E-03
            6253            6295     124.160E-03     124.079E-03
            6253            6302     118.868E-03     118.323E-03
            6254            6295     124.160E-03     124.079E-03
            6254            6296     88.1322E-03     90.5842E-03
            6254            6302     118.868E-03     118.323E-03
            6254            6303     84.4538E-03     85.5460E-03
            6255            6296     88.1322E-03     90.5842E-03
            6255            6297     58.8830E-03     63.1300E-03
            6255            6303     84.4538E-03     85.5460E-03
            6255            6304     57.8693E-03     60.0331E-03
            6256            6297     58.8830E-03     63.1300E-03
            6256            6298     49.4446E-03     54.1311E-03
            6256            6304     57.8693E-03     60.0331E-03
            6256            6305     50.3508E-03     52.7926E-03
            6257            6298     49.4446E-03     54.1311E-03
            6257            6299     67.1997E-03     71.0571E-03
            6257            6305     50.3508E-03     52.7926E-03
            6257            6306     66.0661E-03     67.9751E-03
            6258            6299     67.1997E-03     71.0571E-03
            6258            6300     99.8536E-03     102.021E-03
            6258            6306     66.0661E-03     67.9751E-03
            6258            6307     96.0345E-03     96.8073E-03
            6259            6300     99.8536E-03     102.021E-03
            6259            6301     136.656E-03     136.258E-03
            6259            6307     96.0345E-03     96.8073E-03
            6259            6308     131.213E-03     130.361E-03
            6260             281     149.398E-03     147.622E-03
            6260             282     155.772E-03     153.888E-03
            6260            6301     136.656E-03     136.258E-03
            6260            6308     131.213E-03     130.361E-03
            6261             757     136.957E-03     135.469E-03
            6261             758     130.476E-03     128.836E-03
            6261            6302     118.868E-03     118.323E-03
            6261            6309     113.259E-03     112.688E-03
            6262            6302     118.868E-03     118.323E-03
            6262            6303     84.4538E-03     85.5460E-03
            6262            6309     113.259E-03     112.688E-03
            6262            6310     81.0821E-03     81.7687E-03
            6263            6303     84.4538E-03     85.5460E-03
            6263            6304     57.8693E-03     60.0331E-03
            6263            6310     81.0821E-03     81.7687E-03
            6263            6311     56.4749E-03     56.9246E-03
            6264            6304     57.8693E-03     60.0331E-03
            6264            6305     50.3508E-03     52.7926E-03
            6264            6311     56.4749E-03     56.9246E-03
            6264            6312     49.4056E-03     49.4224E-03
            6265            6305     50.3508E-03     52.7926E-03
            6265            6306     66.0661E-03     67.9751E-03
            6265            6312     49.4056E-03     49.4224E-03
            6265            6313     64.3872E-03     64.7234E-03
            6266            6306     66.0661E-03     67.9751E-03
            6266            6307     96.0345E-03     96.8073E-03
            6266            6313     64.3872E-03     64.7234E-03
            6266            6314     92.4785E-03     92.9040E-03
            6267            6307     96.0345E-03     96.8073E-03
            6267            6308     131.213E-03     130.361E-03
            6267            6314     92.4785E-03     92.9040E-03
            6267            6315     125.460E-03     124.582E-03
            6268             280     142.753E-03     140.810E-03
            6268             281     149.398E-03     147.622E-03
            6268            6308     131.213E-03     130.361E-03
            6268            6315     125.460E-03     124.582E-03
            6269             758     130.476E-03     128.836E-03
            6269             759     123.580E-03     122.800E-03
            6269            6309     113.259E-03     112.688E-03
            6269            6316     107.575E-03     107.533E-03
            6270            6309     113.259E-03     112.688E-03
            6270            6310     81.0821E-03     81.7687E-03
            6270            6316     107.575E-03     107.533E-03
            6270            6317     77.6613E-03     78.2518E-03
            6271            6310     81.0821E-03     81.7687E-03
            6271            6311     56.4749E-03     56.9246E-03
            6271            6317     77.6613E-03     78.2518E-03
            6271            6318     55.0110E-03     54.1099E-03
            6272            6311     56.4749E-03     56.9246E-03
            6272            6312     49.4056E-03     49.4224E-03
            6272            6318     55.0110E-03     54.1099E-03
            6272            6319     48.7470E-03     46.6619E-03
            6273            6312     49.4056E-03     49.4224E-03
            6273            6313     64.3872E-03     64.7234E-03
            6273            6319     48.7470E-03     46.6619E-03
            6273            6320     62.6543E-03     61.9586E-03
            6274            6313     64.3872E-03     64.7234E-03
            6274            6314     92.4785E-03     92.9040E-03
            6274            6320     62.6543E-03     61.9586E-03
            6274            6321     88.7638E-03     89.2283E-03
            6275            6314     92.4785E-03     92.9040E-03
            6275            6315     125.460E-03     124.582E-03
            6275            6321     88.7638E-03     89.2283E-03
            6275            6322     119.568E-03     119.231E-03
            6276             279     135.692E-03     134.581E-03
            6276             280     142.753E-03     140.810E-03
            6276            6315     125.460E-03     124.582E-03
            6276            6322     119.568E-03     119.231E-03
            6277             759     123.580E-03     122.800E-03
            6277             760     116.628E-03     116.022E-03
            6277            6316     107.575E-03     107.533E-03
            6277            6323     101.895E-03     102.731E-03
            6278            6316     107.575E-03     107.533E-03
            6278            6317     77.6613E-03     78.2518E-03
            6278            6323     101.895E-03     102.731E-03
            6278            6324     74.7191E-03     75.7078E-03
            6279            6317     77.6613E-03     78.2518E-03
            6279            6318     55.0110E-03     54.1099E-03
            6279            6324     74.7191E-03     75.7078E-03
            6279            6325     53.9238E-03     51.3771E-03
            6280            6318     55.0110E-03     54.1099E-03
            6280            6319     48.7470E-03     46.6619E-03
            6280            6325     53.9238E-03     51.3771E-03
            6280            6326     47.8157E-03     43.4064E-03
            6281            6319     48.7470E-03     46.6619E-03
            6281            6320     62.6543E-03     61.9586E-03
            6281            6326     47.8157E-03     43.4064E-03
            6281            6327     61.0542E-03     59.1162E-03
            6282            6320     62.6543E-03     61.9586E-03
            6282            6321     88.7638E-03     89.2283E-03
            6282            6327     61.0542E-03     59.1162E-03
            6282            6328     85.3942E-03     86.5026E-03
            6283            6321     88.7638E-03     89.2283E-03
            6283            6322     119.568E-03     119.231E-03
            6283            6328     85.3942E-03     86.5026E-03
            6283            6329     113.579E-03     114.214E-03
            6284             278     128.417E-03     127.621E-03
            6284             279     135.692E-03     134.581E-03
            6284            6322     119.568E-03     119.231E-03
            6284            6329     113.579E-03     114.214E-03
            6285             760     116.628E-03     116.022E-03
            6285             761     108.141E-03     110.427E-03
            6285            6323     101.895E-03     102.731E-03
            6285            6330     95.9468E-03     97.9344E-03
            6286            6323     101.895E-03     102.731E-03
            6286            6324     74.7191E-03     75.7078E-03
            6286            6330     95.9468E-03     97.9344E-03
            6286            6331     72.3899E-03     71.5393E-03
            6287            6324     74.7191E-03     75.7078E-03
            6287            6325     53.9238E-03     51.3771E-03
            6287            6331     72.3899E-03     71.5393E-03
            6287            6332     53.2762E-03     48.5536E-03
            6288            6325     53.9238E-03     51.3771E-03
            6288            6326     47.8157E-03     43.4064E-03
            6288            6332     53.2762E-03     48.5536E-03
            6288            6333     47.5182E-03     41.8393E-03
            6289            6326     47.8157E-03     43.4064E-03
            6289            6327     61.0542E-03     59.1162E-03
            6289            6333     47.5182E-03     41.8393E-03
            6289            6334     59.5731E-03     55.7193E-03
            6290            6327     61.0542E-03     59.1162E-03
            6290            6328     85.3942E-03     86.5026E-03
            6290            6334     59.5731E-03     55.7193E-03
            6290            6335     82.1581E-03     81.9355E-03
            6291            6328     85.3942E-03     86.5026E-03
            6291            6329     113.579E-03     114.214E-03
            6291            6335     82.1581E-03     81.9355E-03
            6291            6336     107.327E-03     109.216E-03
            6292             277     119.973E-03     121.791E-03
            6292             278     128.417E-03     127.621E-03
            6292            6329     113.579E-03     114.214E-03
            6292            6336     107.327E-03     109.216E-03
            6293             761     108.141E-03     110.427E-03
            6293             762     98.5228E-03     93.9895E-03
            6293            6330     95.9468E-03     97.9344E-03
            6293            6337     89.2031E-03     83.5958E-03
            6294            6330     95.9468E-03     97.9344E-03
            6294            6331     72.3899E-03     71.5393E-03
            6294            6337     89.2031E-03     83.5958E-03
            6294            6338     70.0228E-03     63.6817E-03
            6295            6331     72.3899E-03     71.5393E-03
            6295            6332     53.2762E-03     48.5536E-03
            6295            6338     70.0228E-03     63.6817E-03
            6295            6339     54.2303E-03     48.8183E-03
            6296            6332     53.2762E-03     48.5536E-03
            6296            6333     47.5182E-03     41.8393E-03
            6296            6339     54.2303E-03     48.8183E-03
            6296            6340     49.8401E-03     45.1862E-03
            6297            6333     47.5182E-03     41.8393E-03
            6297            6334     59.5731E-03     55.7193E-03
            6297            6340     49.8401E-03     45.1862E-03
            6297            6341     59.3605E-03     54.4430E-03
            6298            6334     59.5731E-03     55.7193E-03
            6298            6335     82.1581E-03     81.9355E-03
            6298            6341     59.3605E-03     54.4430E-03
            6298            6342     78.2045E-03     72.6785E-03
            6299            6335     82.1581E-03     81.9355E-03
            6299            6336     107.327E-03     109.216E-03
            6299            6342     78.2045E-03     72.6785E-03
            6299            6343     99.5090E-03     94.6197E-03
            6300             276     109.948E-03     105.871E-03
            6300             277     119.973E-03     121.791E-03
            6300            6336     107.327E-03     109.216E-03
            6300            6343     99.5090E-03     94.6197E-03
            6301             762     98.5228E-03     93.9895E-03
            6301             763     112.878E-03     101.554E-03
            6301            6337     89.2031E-03     83.5958E-03
            6301            6344     96.5061E-03     86.5184E-03
            6302            6337     89.2031E-03     83.5958E-03
            6302            6338     70.0228E-03     63.6817E-03
            6302            6344     96.5061E-03     86.5184E-03
            6302            6345     68.4514E-03     62.1055E-03
            6303            6338     70.0228E-03     63.6817E-03
            6303            6339     54.2303E-03     48.8183E-03
            6303            6345     68.4514E-03     62.1055E-03
            6303            6346     49.6847E-03     47.1997E-03
            6304            6339     54.2303E-03     48.8183E-03
            6304            6340     49.8401E-03     45.1862E-03
            6304            6346     49.6847E-03     47.1997E-03
            6304            6347     44.0638E-03     42.9350E-03
            6305            6340     49.8401E-03     45.1862E-03
            6305            6341     59.3605E-03     54.4430E-03
            6305            6347     44.0638E-03     42.9350E-03
            6305            6348     54.5379E-03     51.5266E-03
            6306            6341     59.3605E-03     54.4430E-03
            6306            6342     78.2045E-03     72.6785E-03
            6306            6348     54.5379E-03     51.5266E-03
            6306            6349     75.9346E-03     69.1153E-03
            6307            6342     78.2045E-03     72.6785E-03
            6307            6343     99.5090E-03     94.6197E-03
            6307            6349     75.9346E-03     69.1153E-03
            6307            6350     105.806E-03     95.5818E-03
            6308             275     123.293E-03     111.787E-03
            6308             276     109.948E-03     105.871E-03
            6308            6343     99.5090E-03     94.6197E-03
            6308            6350     105.806E-03     95.5818E-03
            6309             763     112.878E-03     101.554E-03
            6309             764     125.475E-03     121.848E-03
            6309            6344     96.5061E-03     86.5184E-03
            6309            6351     106.234E-03     103.902E-03
            6310            6344     96.5061E-03     86.5184E-03
            6310            6345     68.4514E-03     62.1055E-03
            6310            6351     106.234E-03     103.902E-03
            6310            6352     71.3815E-03     71.1557E-03
            6311            6345     68.4514E-03     62.1055E-03
            6311            6346     49.6847E-03     47.1997E-03
            6311            6352     71.3815E-03     71.1557E-03
            6311            6353     47.4663E-03     49.2023E-03
            6312            6346     49.6847E-03     47.1997E-03
            6312            6347     44.0638E-03     42.9350E-03
            6312            6353     47.4663E-03     49.2023E-03
            6312            6354     40.8329E-03     43.3620E-03
            6313            6347     44.0638E-03     42.9350E-03
            6313            6348     54.5379E-03     51.5266E-03
            6313            6354     40.8329E-03     43.3620E-03
            6313            6355     52.5375E-03     53.3560E-03
            6314            6348     54.5379E-03     51.5266E-03
            6314            6349     75.9346E-03     69.1153E-03
            6314            6355     52.5375E-03     53.3560E-03
            6314            6356     78.9329E-03     77.6532E-03
            6315            6349     75.9346E-03     69.1153E-03
            6315            6350     105.806E-03     95.5818E-03
            6315            6356     78.9329E-03     77.6532E-03
            6315            6357     115.044E-03     111.761E-03
            6316             274     134.793E-03     130.252E-03
            6316             275     123.293E-03     111.787E-03
            6316            6350     105.806E-03     95.5818E-03
            6316            6357     115.044E-03     111.761E-03
            6317             764     125.475E-03     121.848E-03
            6317             765     113.953E-03     113.657E-03
            6317            6351     106.234E-03     103.902E-03
            6317            6358     100.517E-03     101.230E-03
            6318            6351     106.234E-03     103.902E-03
            6318            6352     71.3815E-03     71.1557E-03
            6318            6358     100.517E-03     101.230E-03
            6318            6359     73.9294E-03     76.3955E-03
            6319            6352     71.3815E-03     71.1557E-03
            6319            6353     47.4663E-03     49.2023E-03
            6319            6359     73.9294E-03     76.3955E-03
            6319            6360     53.2565E-03     56.8903E-03
            6320            6353     47.4663E-03     49.2023E-03
            6320            6354     40.8329E-03     43.3620E-03
            6320            6360     53.2565E-03     56.8903E-03
            6320            6361     47.1722E-03     51.0227E-03
            6321            6354     40.8329E-03     43.3620E-03
            6321            6355     52.5375E-03     53.3560E-03
            6321            6361     47.1722E-03     51.0227E-03
            6321            6362     57.9522E-03     61.1262E-03
            6322            6355     52.5375E-03     53.3560E-03
            6322            6356     78.9329E-03     77.6532E-03
            6322            6362     57.9522E-03     61.1262E-03
            6322            6363     81.2311E-03     83.3705E-03
            6323            6356     78.9329E-03     77.6532E-03
            6323            6357     115.044E-03     111.761E-03
            6323            6363     81.2311E-03     83.3705E-03
            6323            6364     108.817E-03     109.424E-03
            6324             273     122.468E-03     122.107E-03
            6324             274     134.793E-03     130.252E-03
            6324            6357     115.044E-03     111.761E-03
            6324            6364     108.817E-03     109.424E-03
            6325             765     113.953E-03     113.657E-03
            6325             766     105.431E-03     104.345E-03
            6325            6358     100.517E-03     101.230E-03
            6325            6365     93.3048E-03     93.1156E-03
            6326            6358     100.517E-03     101.230E-03
            6326            6359     73.9294E-03     76.3955E-03
            6326            6365     93.3048E-03     93.1156E-03
            6326            6366     71.3077E-03     72.9244E-03
            6327            6359     73.9294E-03     76.3955E-03
            6327            6360     53.2565E-03     56.8903E-03
            6327            6366     71.3077E-03     72.9244E-03
            6327            6367     55.1838E-03     58.1397E-03
            6328            6360     53.2565E-03     56.8903E-03
            6328            6361     47.1722E-03     51.0227E-03
            6328            6367     55.1838E-03     58.1397E-03
            6328            6368     50.2527E-03     53.5620E-03
            6329            6361     47.1722E-03     51.0227E-03
            6329            6362     57.9522E-03     61.1262E-03
            6329            6368     50.2527E-03     53.5620E-03
            6329            6369     59.6867E-03     62.4503E-03
            6330            6362     57.9522E-03     61.1262E-03
            6330            6363     81.2311E-03     83.3705E-03
            6330            6369     59.6867E-03     62.4503E-03
            6330            6370     78.4183E-03     79.8179E-03
            6331            6363     81.2311E-03     83.3705E-03
            6331            6364     108.817E-03     109.424E-03
            6331            6370     78.4183E-03     79.8179E-03
            6331            6371     101.417E-03     100.952E-03
            6332             272     113.796E-03     112.362E-03
            6332             273     122.468E-03     122.107E-03
            6332            6364     108.817E-03     109.424E-03
            6332            6371     101.417E-03     100.952E-03
            6333             766     105.431E-03     104.345E-03
            6333             767     98.7277E-03     97.6260E-03
            6333            6365     93.3048E-03     93.1156E-03
            6333            6372     87.6910E-03     87.2671E-03
            6334            6365     93.3048E-03     93.1156E-03
            6334            6366     71.3077E-03     72.9244E-03
            6334            6372     87.6910E-03     87.2671E-03
            6334            6373     67.7604E-03     68.4915E-03
            6335            6366     71.3077E-03     72.9244E-03
            6335            6367     55.1838E-03     58.1397E-03
            6335            6373     67.7604E-03     68.4915E-03
            6335            6374     54.3741E-03     55.8420E-03
            6336            6367     55.1838E-03     58.1397E-03
            6336            6368     50.2527E-03     53.5620E-03
            6336            6374     54.3741E-03     55.8420E-03
            6336            6375     51.1593E-03     52.8343E-03
            6337            6368     50.2527E-03     53.5620E-03
            6337            6369     59.6867E-03     62.4503E-03
            6337            6375     51.1593E-03     52.8343E-03
            6337            6376     58.7130E-03     59.9942E-03
            6338            6369     59.6867E-03     62.4503E-03
            6338            6370     78.4183E-03     79.8179E-03
            6338            6376     58.7130E-03     59.9942E-03
            6338            6377     74.6535E-03     75.1035E-03
            6339            6370     78.4183E-03     79.8179E-03
            6339            6371     101.417E-03     100.952E-03
            6339            6377     74.6535E-03     75.1035E-03
            6339            6378     95.5970E-03     94.9152E-03
            6340             271     106.876E-03     105.552E-03
            6340             272     113.796E-03     112.362E-03
            6340            6371     101.417E-03     100.952E-03
            6340            6378     95.5970E-03     94.9152E-03
            6341             767     98.7277E-03     97.6260E-03
            6341             768     91.7879E-03     90.7223E-03
            6341            6372     87.6910E-03     87.2671E-03
            6341            6379     81.8661E-03     81.5195E-03
            6342            6372     87.6910E-03     87.2671E-03
            6342            6373     67.7604E-03     68.4915E-03
            6342            6379     81.8661E-03     81.5195E-03
            6342            6380     64.5294E-03     64.9812E-03
            6343            6373     67.7604E-03     68.4915E-03
            6343            6374     54.3741E-03     55.8420E-03
            6343            6380     64.5294E-03     64.9812E-03
            6343            6381     53.2500E-03     53.5075E-03
            6344            6374     54.3741E-03     55.8420E-03
            6344            6375     51.1593E-03     52.8343E-03
            6344            6381     53.2500E-03     53.5075E-03
            6344            6382     50.5416E-03     50.4954E-03
            6345            6375     51.1593E-03     52.8343E-03
            6345            6376     58.7130E-03     59.9942E-03
            6345            6382     50.5416E-03     50.4954E-03
            6345            6383     57.3121E-03     57.4358E-03
            6346            6376     58.7130E-03     59.9942E-03
            6346            6377     74.6535E-03     75.1035E-03
            6346            6383     57.3121E-03     57.4358E-03
            6346            6384     71.1636E-03     71.3719E-03
            6347            6377     74.6535E-03     75.1035E-03
            6347            6378     95.5970E-03     94.9152E-03
            6347            6384     71.1636E-03     71.3719E-03
            6347            6385     89.5756E-03     88.9660E-03
            6348             270     99.7503E-03     98.4386E-03
            6348             271     106.876E-03     105.552E-03
            6348            6378     95.5970E-03     94.9152E-03
            6348            6385     89.5756E-03     88.9660E-03
            6349             768     91.7879E-03     90.7223E-03
            6349             769     84.6692E-03     84.3112E-03
            6349            6379     81.8661E-03     81.5195E-03
            6349            6386     76.1156E-03     76.2103E-03
            6350            6379     81.8661E-03     81.5195E-03
            6350            6380     64.5294E-03     64.9812E-03
            6350            6386     76.1156E-03     76.2103E-03
            6350            6387     61.3375E-03     61.6404E-03
            6351            6380     64.5294E-03     64.9812E-03
            6351            6381     53.2500E-03     53.5075E-03
            6351            6387     61.3375E-03     61.6404E-03
            6351            6388     52.0232E-03     51.2127E-03
            6352            6381     53.2500E-03     53.5075E-03
            6352            6382     50.5416E-03     50.4954E-03
            6352            6388     52.0232E-03     51.2127E-03
            6352            6389     49.9939E-03     48.3746E-03
            6353            6382     50.5416E-03     50.4954E-03
            6353            6383     57.3121E-03     57.4358E-03
            6353            6389     49.9939E-03     48.3746E-03
            6353            6390     55.7989E-03     55.0258E-03
            6354            6383     57.3121E-03     57.4358E-03
            6354            6384     71.1636E-03     71.3719E-03
            6354            6390     55.7989E-03     55.0258E-03
            6354            6391     67.6260E-03     67.7908E-03
            6355            6384     71.1636E-03     71.3719E-03
            6355            6385     89.5756E-03     88.9660E-03
            6355            6391     67.6260E-03     67.7908E-03
            6355            6392     83.5682E-03     83.4146E-03
            6356             269     92.4278E-03     91.8039E-03
            6356             270     99.7503E-03     98.4386E-03
            6356            6385     89.5756E-03     88.9660E-03
            6356            6392     83.5682E-03     83.4146E-03
            6357             769     84.6692E-03     84.3112E-03
            6357             770     77.5263E-03     77.4289E-03
            6357            6386     76.1156E-03     76.2103E-03
            6357            6393     70.5033E-03     71.2450E-03
            6358            6386     76.1156E-03     76.2103E-03
            6358            6387     61.3375E-03     61.6404E-03
            6358            6393     70.5033E-03     71.2450E-03
            6358            6394     58.6679E-03     58.9940E-03
            6359            6387     61.3375E-03     61.6404E-03
            6359            6388     52.0232E-03     51.2127E-03
            6359            6394     58.6679E-03     58.9940E-03
            6359            6395     51.0050E-03     48.8266E-03
            6360            6388     52.0232E-03     51.2127E-03
            6360            6389     49.9939E-03     48.3746E-03
            6360            6395     51.0050E-03     48.8266E-03
            6360            6396     49.0640E-03     45.7903E-03
            6361            6389     49.9939E-03     48.3746E-03
            6361            6390     55.7989E-03     55.0258E-03
            6361            6396     49.0640E-03     45.7903E-03
            6361            6397     54.3512E-03     52.4805E-03
            6362            6390     55.7989E-03     55.0258E-03
            6362            6391     67.6260E-03     67.7908E-03
            6362            6397     54.3512E-03     52.4805E-03
            6362            6398     64.4858E-03     64.8818E-03
            6363            6391     67.6260E-03     67.7908E-03
            6363            6392     83.5682E-03     83.4146E-03
            6363            6398     64.4858E-03     64.8818E-03
            6363            6399     77.5999E-03     78.1797E-03
            6364             268     84.9571E-03     84.7024E-03
            6364             269     92.4278E-03     91.8039E-03
            6364            6392     83.5682E-03     83.4146E-03
            6364            6399     77.5999E-03     78.1797E-03
            6365             770     77.5263E-03     77.4289E-03
            6365             771     68.9952E-03     71.2022E-03
            6365            6393     70.5033E-03     71.2450E-03
            6365            6400     64.7980E-03     66.2279E-03
            6366            6393     70.5033E-03     71.2450E-03
            6366            6394     58.6679E-03     58.9940E-03
            6366            6400     64.7980E-03     66.2279E-03
            6366            6401     56.7386E-03     55.4917E-03
            6367            6394     58.6679E-03     58.9940E-03
            6367            6395     51.0050E-03     48.8266E-03
            6367            6401     56.7386E-03     55.4917E-03
            6367            6402     50.1317E-03     46.4366E-03
            6368            6395     51.0050E-03     48.8266E-03
            6368            6396     49.0640E-03     45.7903E-03
            6368            6402     50.1317E-03     46.4366E-03
            6368            6403     48.1702E-03     44.0746E-03
            6369            6396     49.0640E-03     45.7903E-03
            6369            6397     54.3512E-03     52.4805E-03
            6369            6403     48.1702E-03     44.0746E-03
            6369            6404     52.9089E-03     49.7236E-03
            6370            6397     54.3512E-03     52.4805E-03
            6370            6398     64.4858E-03     64.8818E-03
            6370            6404     52.9089E-03     49.7236E-03
            6370            6405     61.7128E-03     60.9901E-03
            6371            6398     64.4858E-03     64.8818E-03
            6371            6399     77.5999E-03     78.1797E-03
            6371            6405     61.7128E-03     60.9901E-03
            6371            6406     71.4469E-03     72.8236E-03
            6372             267     76.3326E-03     78.1085E-03
            6372             268     84.9571E-03     84.7024E-03
            6372            6399     77.5999E-03     78.1797E-03
            6372            6406     71.4469E-03     72.8236E-03
            6373             771     68.9952E-03     71.2022E-03
            6373             772     59.4081E-03     56.8714E-03
            6373            6400     64.7980E-03     66.2279E-03
            6373            6407     58.8087E-03     55.1661E-03
            6374            6400     64.7980E-03     66.2279E-03
            6374            6401     56.7386E-03     55.4917E-03
            6374            6407     58.8087E-03     55.1661E-03
            6374            6408     55.0112E-03     50.5873E-03
            6375            6401     56.7386E-03     55.4917E-03
            6375            6402     50.1317E-03     46.4366E-03
            6375            6408     55.0112E-03     50.5873E-03
            6375            6409     50.0395E-03     46.3373E-03
            6376            6402     50.1317E-03     46.4366E-03
            6376            6403     48.1702E-03     44.0746E-03
            6376            6409     50.0395E-03     46.3373E-03
            6376            6410     48.8348E-03     45.6098E-03
            6377            6403     48.1702E-03     44.0746E-03
            6377            6404     52.9089E-03     49.7236E-03
            6377            6410     48.8348E-03     45.6098E-03
            6377            6411     52.1688E-03     48.7844E-03
            6378            6404     52.9089E-03     49.7236E-03
            6378            6405     61.7128E-03     60.9901E-03
            6378            6411     52.1688E-03     48.7844E-03
            6378            6412     58.7849E-03     55.0485E-03
            6379            6405     61.7128E-03     60.9901E-03
            6379            6406     71.4469E-03     72.8236E-03
            6379            6412     58.7849E-03     55.0485E-03
            6379            6413     64.2831E-03     61.3442E-03
            6380             266     65.9304E-03     63.9016E-03
            6380             267     76.3326E-03     78.1085E-03
            6380            6406     71.4469E-03     72.8236E-03
            6380            6413     64.2831E-03     61.3442E-03
            6381             772     59.4081E-03     56.8714E-03
            6381             773     74.7462E-03     68.0324E-03
            6381            6407     58.8087E-03     55.1661E-03
            6381            6414     67.4096E-03     61.7173E-03
            6382            6407     58.8087E-03     55.1661E-03
            6382            6408     55.0112E-03     50.5873E-03
            6382            6414     67.4096E-03     61.7173E-03
            6382            6415     54.7483E-03     51.4245E-03
            6383            6408     55.0112E-03     50.5873E-03
            6383            6409     50.0395E-03     46.3373E-03
            6383            6415     54.7483E-03     51.4245E-03
            6383            6416     47.1299E-03     45.7863E-03
            6384            6409     50.0395E-03     46.3373E-03
            6384            6410     48.8348E-03     45.6098E-03
            6384            6416     47.1299E-03     45.7863E-03
            6384            6417     45.2950E-03     44.5565E-03
            6385            6410     48.8348E-03     45.6098E-03
            6385            6411     52.1688E-03     48.7844E-03
            6385            6417     45.2950E-03     44.5565E-03
            6385            6418     48.9774E-03     47.4145E-03
            6386            6411     52.1688E-03     48.7844E-03
            6386            6412     58.7849E-03     55.0485E-03
            6386            6418     48.9774E-03     47.4145E-03
            6386            6419     58.0097E-03     54.4347E-03
            6387            6412     58.7849E-03     55.0485E-03
            6387            6413     64.2831E-03     61.3442E-03
            6387            6419     58.0097E-03     54.4347E-03
            6387            6420     72.0220E-03     66.2698E-03
            6388             265     80.2255E-03     73.5119E-03
            6388             266     65.9304E-03     63.9016E-03
            6388            6413     64.2831E-03     61.3442E-03
            6388            6420     72.0220E-03     66.2698E-03
            6389             773     74.7462E-03     68.0324E-03
            6389             774     88.3158E-03     86.3917E-03
            6389            6414     67.4096E-03     61.7173E-03
            6389            6421     77.2154E-03     76.2723E-03
            6390            6414     67.4096E-03     61.7173E-03
            6390            6415     54.7483E-03     51.4245E-03
            6390            6421     77.2154E-03     76.2723E-03
            6390            6422     57.9422E-03     58.3716E-03
            6391            6415     54.7483E-03     51.4245E-03
            6391            6416     47.1299E-03     45.7863E-03
            6391            6422     57.9422E-03     58.3716E-03
            6391            6423     46.7256E-03     47.8853E-03
            6392            6416     47.1299E-03     45.7863E-03
            6392            6417     45.2950E-03     44.5565E-03
            6392            6423     46.7256E-03     47.8853E-03
            6392            6424     44.1837E-03     45.5664E-03
            6393            6417     45.2950E-03     44.5565E-03
            6393            6418     48.9774E-03     47.4145E-03
            6393            6424     44.1837E-03     45.5664E-03
            6393            6425     48.5119E-03     49.2789E-03
            6394            6418     48.9774E-03     47.4145E-03
            6394            6419     58.0097E-03     54.4347E-03
            6394            6425     48.5119E-03     49.2789E-03
            6394            6426     61.0994E-03     60.9523E-03
            6395            6419     58.0097E-03     54.4347E-03
            6395            6420     72.0220E-03     66.2698E-03
            6395            6426     61.0994E-03     60.9523E-03
            6395            6427     81.4502E-03     79.8351E-03
            6396             264     93.0397E-03     90.3709E-03
            6396             265     80.2255E-03     73.5119E-03
            6396            6420     72.0220E-03     66.2698E-03
            6396            6427     81.4502E-03     79.8351E-03
            6397             774     88.3158E-03     86.3917E-03
            6397             775     76.4296E-03     76.0900E-03
            6397            6421     77.2154E-03     76.2723E-03
            6397            6428     70.7837E-03     70.9421E-03
            6398            6421     77.2154E-03     76.2723E-03
            6398            6422     57.9422E-03     58.3716E-03
            6398            6428     70.7837E-03     70.9421E-03
            6398            6429     59.6091E-03     60.8233E-03
            6399            6422     57.9422E-03     58.3716E-03
            6399            6423     46.7256E-03     47.8853E-03
            6399            6429     59.6091E-03     60.8233E-03
            6399            6430     51.4230E-03     53.3298E-03
            6400            6423     46.7256E-03     47.8853E-03
            6400            6424     44.1837E-03     45.5664E-03
            6400            6430     51.4230E-03     53.3298E-03
            6400            6431     49.1806E-03     51.1606E-03
            6401            6424     44.1837E-03     45.5664E-03
            6401            6425     48.5119E-03     49.2789E-03
            6401            6431     49.1806E-03     51.1606E-03
            6401            6432     52.9755E-03     54.7573E-03
            6402            6425     48.5119E-03     49.2789E-03
            6402            6426     61.0994E-03     60.9523E-03
            6402            6432     52.9755E-03     54.7573E-03
            6402            6433     62.4557E-03     63.5818E-03
            6403            6426     61.0994E-03     60.9523E-03
            6403            6427     81.4502E-03     79.8351E-03
            6403            6433     62.4557E-03     63.5818E-03
            6403            6434     74.5368E-03     74.6426E-03
            6404             263     80.5177E-03     80.1222E-03
            6404             264     93.0397E-03     90.3709E-03
            6404            6427     81.4502E-03     79.8351E-03
            6404            6434     74.5368E-03     74.6426E-03
            6405             775     76.4296E-03     76.0900E-03
            6405             776     67.7383E-03     67.1893E-03
            6405            6428     70.7837E-03     70.9421E-03
            6405            6435     63.6285E-03     63.3923E-03
            6406            6428     70.7837E-03     70.9421E-03
            6406            6429     59.6091E-03     60.8233E-03
            6406            6435     63.6285E-03     63.3923E-03
            6406            6436     57.0638E-03     57.6950E-03
            6407            6429     59.6091E-03     60.8233E-03
            6407            6430     51.4230E-03     53.3298E-03
            6407            6436     57.0638E-03     57.6950E-03
            6407            6437     53.0696E-03     54.5132E-03
            6408            6430     51.4230E-03     53.3298E-03
            6408            6431     49.1806E-03     51.1606E-03
            6408            6437     53.0696E-03     54.5132E-03
            6408            6438     51.8827E-03     53.5819E-03
            6409            6431     49.1806E-03     51.1606E-03
            6409            6432     52.9755E-03     54.7573E-03
            6409            6438     51.8827E-03     53.5819E-03
            6409            6439     54.4814E-03     55.8631E-03
            6410            6432     52.9755E-03     54.7573E-03
            6410            6433     62.4557E-03     63.5818E-03
            6410            6439     54.4814E-03     55.8631E-03
            6410            6440     59.7103E-03     60.1949E-03
            6411            6433     62.4557E-03     63.5818E-03
            6411            6434     74.5368E-03     74.6426E-03
            6411            6440     59.7103E-03     60.1949E-03
            6411            6441     67.1750E-03     66.6925E-03
            6412             262     71.6572E-03     70.7894E-03
            6412             263     80.5177E-03     80.1222E-03
            6412            6434     74.5368E-03     74.6426E-03
            6412            6441     67.1750E-03     66.6925E-03
            6413             776     67.7383E-03     67.1893E-03
            6413             777     61.0876E-03     60.3969E-03
            6413            6435     63.6285E-03     63.3923E-03
            6413            6442     58.3091E-03     57.9914E-03
            6414            6435     63.6285E-03     63.3923E-03
            6414            6436     57.0638E-03     57.6950E-03
            6414            6442     58.3091E-03     57.9914E-03
            6414            6443     54.1374E-03     54.4387E-03
            6415            6436     57.0638E-03     57.6950E-03
            6415            6437     53.0696E-03     54.5132E-03
            6415            6443     54.1374E-03     54.4387E-03
            6415            6444     52.5910E-03     53.3526E-03
            6416            6437     53.0696E-03     54.5132E-03
            6416            6438     51.8827E-03     53.5819E-03
            6416            6444     52.5910E-03     53.3526E-03
            6416            6445     52.7754E-03     53.7107E-03
            6417            6438     51.8827E-03     53.5819E-03
            6417            6439     54.4814E-03     55.8631E-03
            6417            6445     52.7754E-03     53.7107E-03
            6417            6446     53.8748E-03     54.4852E-03
            6418            6439     54.4814E-03     55.8631E-03
            6418            6440     59.7103E-03     60.1949E-03
            6418            6446     53.8748E-03     54.4852E-03
            6418            6447     56.5380E-03     56.5935E-03
            6419            6440     59.7103E-03     60.1949E-03
            6419            6441     67.1750E-03     66.6925E-03
            6419            6447     56.5380E-03     56.5935E-03
            6419            6448     61.5583E-03     61.0262E-03
            6420             261     64.6771E-03     63.8283E-03
            6420             262     71.6572E-03     70.7894E-03
            6420            6441     67.1750E-03     66.6925E-03
            6420            6448     61.5583E-03     61.0262E-03
            6421             777     61.0876E-03     60.3969E-03
            6421             778     54.4424E-03     53.9508E-03
            6421            6442     58.3091E-03     57.9914E-03
            6421            6449     53.0679E-03     52.8303E-03
            6422            6442     58.3091E-03     57.9914E-03
            6422            6443     54.1374E-03     54.4387E-03
            6422            6449     53.0679E-03     52.8303E-03
            6422            6450     51.6465E-03     51.8275E-03
            6423            6443     54.1374E-03     54.4387E-03
            6423            6444     52.5910E-03     53.3526E-03
            6423            6450     51.6465E-03     51.8275E-03
            6423            6451     51.9066E-03     52.2083E-03
            6424            6444     52.5910E-03     53.3526E-03
            6424            6445     52.7754E-03     53.7107E-03
            6424            6451     51.9066E-03     52.2083E-03
            6424            6452     52.4869E-03     52.7001E-03
            6425            6445     52.7754E-03     53.7107E-03
            6425            6446     53.8748E-03     54.4852E-03
            6425            6452     52.4869E-03     52.7001E-03
            6425            6453     53.0099E-03     53.1379E-03
            6426            6446     53.8748E-03     54.4852E-03
            6426            6447     56.5380E-03     56.5935E-03
            6426            6453     53.0099E-03     53.1379E-03
            6426            6454     53.7701E-03     53.6979E-03
            6427            6447     56.5380E-03     56.5935E-03
            6427            6448     61.5583E-03     61.0262E-03
            6427            6454     53.7701E-03     53.6979E-03
            6427            6455     56.0277E-03     55.5523E-03
            6428             260     57.7748E-03     57.0556E-03
            6428             261     64.6771E-03     63.8283E-03
            6428            6448     61.5583E-03     61.0262E-03
            6428            6455     56.0277E-03     55.5523E-03
            6429             778     54.4424E-03     53.9508E-03
            6429             779     48.2017E-03     47.8542E-03
            6429            6449     53.0679E-03     52.8303E-03
            6429            6456     48.2575E-03     48.1850E-03
            6430            6449     53.0679E-03     52.8303E-03
            6430            6450     51.6465E-03     51.8275E-03
            6430            6456     48.2575E-03     48.1850E-03
            6430            6457     49.3193E-03     49.4212E-03
            6431            6450     51.6465E-03     51.8275E-03
            6431            6451     51.9066E-03     52.2083E-03
            6431            6457     49.3193E-03     49.4212E-03
            6431            6458     51.1743E-03     51.0237E-03
            6432            6451     51.9066E-03     52.2083E-03
            6432            6452     52.4869E-03     52.7001E-03
            6432            6458     51.1743E-03     51.0237E-03
            6432            6459     52.2584E-03     51.9190E-03
            6433            6452     52.4869E-03     52.7001E-03
            6433            6453     53.0099E-03     53.1379E-03
            6433            6459     52.2584E-03     51.9190E-03
            6433            6460     52.0995E-03     51.8012E-03
            6434            6453     53.0099E-03     53.1379E-03
            6434            6454     53.7701E-03     53.6979E-03
            6434            6460     52.0995E-03     51.8012E-03
            6434            6461     51.1405E-03     50.9871E-03
            6435            6454     53.7701E-03     53.6979E-03
            6435            6455     56.0277E-03     55.5523E-03
            6435            6461     51.1405E-03     50.9871E-03
            6435            6462     50.8748E-03     50.5791E-03
            6436             259     51.1739E-03     50.6693E-03
            6436             260     57.7748E-03     57.0556E-03
            6436            6455     56.0277E-03     55.5523E-03
            6436            6462     50.8748E-03     50.5791E-03
            6437             779     48.2017E-03     47.8542E-03
            6437             780     42.2718E-03     42.4059E-03
            6437            6456     48.2575E-03     48.1850E-03
            6437            6463     43.9270E-03     44.1380E-03
            6438            6456     48.2575E-03     48.1850E-03
            6438            6457     49.3193E-03     49.4212E-03
            6438            6463     43.9270E-03     44.1380E-03
            6438            6464     47.4566E-03     47.4601E-03
            6439            6457     49.3193E-03     49.4212E-03
            6439            6458     51.1743E-03     51.0237E-03
            6439            6464     47.4566E-03     47.4601E-03
            6439            6465     50.5394E-03     49.8811E-03
            6440            6458     51.1743E-03     51.0237E-03
            6440            6459     52.2584E-03     51.9190E-03
            6440            6465     50.5394E-03     49.8811E-03
            6440            6466     51.9202E-03     50.8672E-03
            6441            6459     52.2584E-03     51.9190E-03
            6441            6460     52.0995E-03     51.8012E-03
            6441            6466     51.9202E-03     50.8672E-03
            6441            6467     51.2611E-03     50.5097E-03
            6442            6460     52.0995E-03     51.8012E-03
            6442            6461     51.1405E-03     50.9871E-03
            6442            6467     51.2611E-03     50.5097E-03
            6442            6468     48.9272E-03     48.7482E-03
            6443            6461     51.1405E-03     50.9871E-03
            6443            6462     50.8748E-03     50.5791E-03
            6443            6468     48.9272E-03     48.7482E-03
            6443            6469     46.1536E-03     46.1417E-03
            6444             258     44.8824E-03     44.7841E-03
            6444             259     51.1739E-03     50.6693E-03
            6444            6462     50.8748E-03     50.5791E-03
            6444            6469     46.1536E-03     46.1417E-03
            6445             780     42.2718E-03     42.4059E-03
            6445             781     36.6560E-03     37.3528E-03
            6445            6463     43.9270E-03     44.1380E-03
            6445            6470     40.0917E-03     40.7104E-03
            6446            6463     43.9270E-03     44.1380E-03
            6446            6464     47.4566E-03     47.4601E-03
            6446            6470     40.0917E-03     40.7104E-03
            6446            6471     46.2888E-03     46.0442E-03
            6447            6464     47.4566E-03     47.4601E-03
            6447            6465     50.5394E-03     49.8811E-03
            6447            6471     46.2888E-03     46.0442E-03
            6447            6472     49.9850E-03     48.5586E-03
            6448            6465     50.5394E-03     49.8811E-03
            6448            6466     51.9202E-03     50.8672E-03
            6448            6472     49.9850E-03     48.5586E-03
            6448            6473     51.0200E-03     49.2460E-03
            6449            6466     51.9202E-03     50.8672E-03
            6449            6467     51.2611E-03     50.5097E-03
            6449            6473     51.0200E-03     49.2460E-03
            6449            6474     50.4387E-03     49.0860E-03
            6450            6467     51.2611E-03     50.5097E-03
            6450            6468     48.9272E-03     48.7482E-03
            6450            6474     50.4387E-03     49.0860E-03
            6450            6475     47.3278E-03     47.0305E-03
            6451            6468     48.9272E-03     48.7482E-03
            6451            6469     46.1536E-03     46.1417E-03
            6451            6475     47.3278E-03     47.0305E-03
            6451            6476     41.8214E-03     42.2623E-03
            6452             257     38.7446E-03     39.2402E-03
            6452             258     44.8824E-03     44.7841E-03
            6452            6469     46.1536E-03     46.1417E-03
            6452            6476     41.8214E-03     42.2623E-03
            6453             781     36.6560E-03     37.3528E-03
            6453             782     31.8540E-03     33.7253E-03
            6453            6470     40.0917E-03     40.7104E-03
            6453            6477     37.7282E-03     38.4519E-03
            6454            6470     40.0917E-03     40.7104E-03
            6454            6471     46.2888E-03     46.0442E-03
            6454            6477     37.7282E-03     38.4519E-03
            6454            6478     45.9770E-03     44.7798E-03
            6455            6471     46.2888E-03     46.0442E-03
            6455            6472     49.9850E-03     48.5586E-03
            6455            6478     45.9770E-03     44.7798E-03
            6455            6479     48.8636E-03     46.8165E-03
            6456            6472     49.9850E-03     48.5586E-03
            6456            6473     51.0200E-03     49.2460E-03
            6456            6479     48.8636E-03     46.8165E-03
            6456            6480     49.4417E-03     47.3553E-03
            6457            6473     51.0200E-03     49.2460E-03
            6457            6474     50.4387E-03     49.0860E-03
            6457            6480     49.4417E-03     47.3553E-03
            6457            6481     49.0589E-03     47.2251E-03
            6458            6474     50.4387E-03     49.0860E-03
            6458            6475     47.3278E-03     47.0305E-03
            6458            6481     49.0589E-03     47.2251E-03
            6458            6482     46.3841E-03     45.4840E-03
            6459            6475     47.3278E-03     47.0305E-03
            6459            6476     41.8214E-03     42.2623E-03
            6459            6482     46.3841E-03     45.4840E-03
            6459            6483     38.6786E-03     39.3953E-03
            6460             256     33.1989E-03     34.8138E-03
            6460             257     38.7446E-03     39.2402E-03
            6460            6476     41.8214E-03     42.2623E-03
            6460            6483     38.6786E-03     39.3953E-03
            6461             782     31.8540E-03     33.7253E-03
            6461             783     30.0241E-03     31.2715E-03
            6461            6477     37.7282E-03     38.4519E-03
            6461            6484     36.8621E-03     36.5595E-03
            6462            6477     37.7282E-03     38.4519E-03
            6462            6478     45.9770E-03     44.7798E-03
            6462            6484     36.8621E-03     36.5595E-03
            6462            6485     45.0629E-03     43.2742E-03
            6463            6478     45.9770E-03     44.7798E-03
            6463            6479     48.8636E-03     46.8165E-03
            6463            6485     45.0629E-03     43.2742E-03
            6463            6486     47.1852E-03     45.5297E-03
            6464            6479     48.8636E-03     46.8165E-03
            6464            6480     49.4417E-03     47.3553E-03
            6464            6486     47.1852E-03     45.5297E-03
            6464            6487     47.9436E-03     46.3910E-03
            6465            6480     49.4417E-03     47.3553E-03
            6465            6481     49.0589E-03     47.2251E-03
            6465            6487     47.9436E-03     46.3910E-03
            6465            6488     47.1922E-03     45.6961E-03
            6466            6481     49.0589E-03     47.2251E-03
            6466            6482     46.3841E-03     45.4840E-03
            6466            6488     47.1922E-03     45.6961E-03
            6466            6489     44.9201E-03     43.5373E-03
            6467            6482     46.3841E-03     45.4840E-03
            6467            6483     38.6786E-03     39.3953E-03
            6467            6489     44.9201E-03     43.5373E-03
            6467            6490     36.5564E-03     36.5036E-03
            6468             255     29.7146E-03     30.9014E-03
            6468             256     33.1989E-03     34.8138E-03
            6468            6483     38.6786E-03     39.3953E-03
            6468            6490     36.5564E-03     36.5036E-03
            6469             783     30.0241E-03     31.2715E-03
            6469             784     38.0458E-03     37.7460E-03
            6469            6484     36.8621E-03     36.5595E-03
            6469            6491     41.4254E-03     40.8932E-03
            6470            6484     36.8621E-03     36.5595E-03
            6470            6485     45.0629E-03     43.2742E-03
            6470            6491     41.4254E-03     40.8932E-03
            6470            6492     45.3784E-03     44.7494E-03
            6471            6485     45.0629E-03     43.2742E-03
            6471            6486     47.1852E-03     45.5297E-03
            6471            6492     45.3784E-03     44.7494E-03
            6471            6493     46.9233E-03     46.3981E-03
            6472            6486     47.1852E-03     45.5297E-03
            6472            6487     47.9436E-03     46.3910E-03
            6472            6493     46.9233E-03     46.3981E-03
            6472            6494     47.8711E-03     47.3626E-03
            6473            6487     47.9436E-03     46.3910E-03
            6473            6488     47.1922E-03     45.6961E-03
            6473            6494     47.8711E-03     47.3626E-03
            6473            6495     46.9689E-03     46.4155E-03
            6474            6488     47.1922E-03     45.6961E-03
            6474            6489     44.9201E-03     43.5373E-03
            6474            6495     46.9689E-03     46.4155E-03
            6474            6496     45.4085E-03     44.7713E-03
            6475            6489     44.9201E-03     43.5373E-03
            6475            6490     36.5564E-03     36.5036E-03
            6475            6496     45.4085E-03     44.7713E-03
            6475            6497     41.3038E-03     40.6464E-03
            6476             254     37.8811E-03     37.1941E-03
            6476             255     29.7146E-03     30.9014E-03
            6476            6490     36.5564E-03     36.5036E-03
            6476            6497     41.3038E-03     40.6464E-03
            6477             784     38.0458E-03     37.7460E-03
            6477             785     40.5663E-03     40.6672E-03
            6477            6491     41.4254E-03     40.8932E-03
            6477            6498     44.1464E-03     44.3828E-03
            6478            6491     41.4254E-03     40.8932E-03
            6478            6492     45.3784E-03     44.7494E-03
            6478            6498     44.1464E-03     44.3828E-03
            6478            6499     48.1332E-03     48.3830E-03
            6479            6492     45.3784E-03     44.7494E-03
            6479            6493     46.9233E-03     46.3981E-03
            6479            6499     48.1332E-03     48.3830E-03
            6479            6500     48.7216E-03     48.7829E-03
            6480            6493     46.9233E-03     46.3981E-03
            6480            6494     47.8711E-03     47.3626E-03
            6480            6500     48.7216E-03     48.7829E-03
            6480            6501     48.9272E-03     48.9160E-03
            6481            6494     47.8711E-03     47.3626E-03
            6481            6495     46.9689E-03     46.4155E-03
            6481            6501     48.9272E-03     48.9160E-03
            6481            6502     48.8281E-03     48.8250E-03
            6482            6495     46.9689E-03     46.4155E-03
            6482            6496     45.4085E-03     44.7713E-03
            6482            6502     48.8281E-03     48.8250E-03
            6482            6503     48.4084E-03     48.4925E-03
            6483            6496     45.4085E-03     44.7713E-03
            6483            6497     41.3038E-03     40.6464E-03
            6483            6503     48.4084E-03     48.4925E-03
            6483            6504     44.7839E-03     44.5677E-03
            6484             253     41.4563E-03     40.8667E-03
            6484             254     37.8811E-03     37.1941E-03
            6484            6497     41.3038E-03     40.6464E-03
            6484            6504     44.7839E-03     44.5677E-03
            6485             785     40.5663E-03     40.6672E-03
            6485             786     33.2382E-03     33.9621E-03
            6485            6498     44.1464E-03     44.3828E-03
            6485            6505     40.8516E-03     41.1338E-03
            6486            6498     44.1464E-03     44.3828E-03
            6486            6499     48.1332E-03     48.3830E-03
            6486            6505     40.8516E-03     41.1338E-03
            6486            6506     49.5587E-03     49.4644E-03
            6487            6499     48.1332E-03     48.3830E-03
            6487            6500     48.7216E-03     48.7829E-03
            6487            6506     49.5587E-03     49.4644E-03
            6487            6507     50.1612E-03     50.1506E-03
            6488            6500     48.7216E-03     48.7829E-03
            6488            6501     48.9272E-03     48.9160E-03
            6488            6507     50.1612E-03     50.1506E-03
            6488            6508     49.6963E-03     49.6695E-03
            6489            6501     48.9272E-03     48.9160E-03
            6489            6502     48.8281E-03     48.8250E-03
            6489            6508     49.6963E-03     49.6695E-03
            6489            6509     50.1747E-03     50.2151E-03
            6490            6502     48.8281E-03     48.8250E-03
            6490            6503     48.4084E-03     48.4925E-03
            6490            6509     50.1747E-03     50.2151E-03
            6490            6510     49.6349E-03     49.5510E-03
            6491            6503     48.4084E-03     48.4925E-03
            6491            6504     44.7839E-03     44.5677E-03
            6491            6510     49.6349E-03     49.5510E-03
            6491            6511     41.1935E-03     41.0979E-03
            6492             252     33.7438E-03     33.8631E-03
            6492             253     41.4563E-03     40.8667E-03
            6492            6504     44.7839E-03     44.5677E-03
            6492            6511     41.1935E-03     41.0979E-03
            6493             786     33.2382E-03     33.9621E-03
            6493             787     33.7831E-03     34.2568E-03
            6493            6505     40.8516E-03     41.1338E-03
            6493            6512     40.3727E-03     40.4375E-03
            6494            6505     40.8516E-03     41.1338E-03
            6494            6506     49.5587E-03     49.4644E-03
            6494            6512     40.3727E-03     40.4375E-03
            6494            6513     48.2053E-03     47.9595E-03
            6495            6506     49.5587E-03     49.4644E-03
            6495            6507     50.1612E-03     50.1506E-03
            6495            6513     48.2053E-03     47.9595E-03
            6495            6514     49.7547E-03     49.6589E-03
            6496            6507     50.1612E-03     50.1506E-03
            6496            6508     49.6963E-03     49.6695E-03
            6496            6514     49.7547E-03     49.6589E-03
            6496            6515     50.0472E-03     50.0293E-03
            6497            6508     49.6963E-03     49.6695E-03
            6497            6509     50.1747E-03     50.2151E-03
            6497            6515     50.0472E-03     50.0293E-03
            6497            6516     49.7203E-03     49.6949E-03
            6498            6509     50.1747E-03     50.2151E-03
            6498            6510     49.6349E-03     49.5510E-03
            6498            6516     49.7203E-03     49.6949E-03
            6498            6517     48.1212E-03     47.9753E-03
            6499            6510     49.6349E-03     49.5510E-03
            6499            6511     41.1935E-03     41.0979E-03
            6499            6517     48.1212E-03     47.9753E-03
            6499            6518     40.3162E-03     40.1836E-03
            6500             251     33.7972E-03     33.7646E-03
            6500             252     33.7438E-03     33.8631E-03
            6500            6511     41.1935E-03     41.0979E-03
            6500            6518     40.3162E-03     40.1836E-03
            6501              13     19.1554E-03     19.0507E-03
            6501             787     33.7831E-03     34.2568E-03
            6501             956     21.4545E-03     21.3672E-03
            6501            6512     40.3727E-03     40.4375E-03
            6502             956     21.4545E-03     21.3672E-03
            6502             957     24.2321E-03     24.1571E-03
            6502            6512     40.3727E-03     40.4375E-03
            6502            6513     48.2053E-03     47.9595E-03
            6503             957     24.2321E-03     24.1571E-03
            6503             958     25.2840E-03     25.2280E-03
            6503            6513     48.2053E-03     47.9595E-03
            6503            6514     49.7547E-03     49.6589E-03
            6504             958     25.2840E-03     25.2280E-03
            6504             959     25.8383E-03     25.8461E-03
            6504            6514     49.7547E-03     49.6589E-03
            6504            6515     50.0472E-03     50.0293E-03
            6505             959     25.8383E-03     25.8461E-03
            6505             960     25.2595E-03     25.2293E-03
            6505            6515     50.0472E-03     50.0293E-03
            6505            6516     49.7203E-03     49.6949E-03
            6506             960     25.2595E-03     25.2293E-03
            6506             961     24.1602E-03     24.1437E-03
            6506            6516     49.7203E-03     49.6949E-03
            6506            6517     48.1212E-03     47.9753E-03
            6507             961     24.1602E-03     24.1437E-03
            6507             962     21.2870E-03     21.2372E-03
            6507            6517     48.1212E-03     47.9753E-03
            6507            6518     40.3162E-03     40.1836E-03
            6508              15     18.9534E-03     18.7790E-03
            6508             251     33.7972E-03     33.7646E-03
            6508             962     21.2870E-03     21.2372E-03
            6508            6518     40.3162E-03     40.1836E-03


  Minimum                            955.962E-06     989.676E-06
      At Element                            5422            5422
            Node                             953             953

  Maximum                            197.580E-03     191.344E-03
      At Element                            3850            3850
            Node                             189             189

           Total                         218.998         216.533


