********************************************************************************
Field Output Report, written Tue Feb 19 12:23:25 2019

Source 1
---------

   ODB: C:/Scratch/B737-19.odb
   Step: RotateDown
   Frame: Increment      1: Step Time =    1.000

Loc 1 : Element nodal  values at shell < ALUMINIUM > < 5 section points > from source 1 : SNEG, (fraction = -1.0) ( Average criteria = 75%, Not averaged across region boundaries )
Loc 2 : Element nodal  values at shell < ALUMINIUM > < 5 section points > from source 1 : SPOS, (fraction = 1.0) ( Average criteria = 75%, Not averaged across region boundaries )

Output sorted by column "Element Label".

Field Output reported at element nodes for region: B737-1.Region_1
   Computation algorithm: EXTRAPOLATE_COMPUTE_AVERAGE
   Averaged at nodes
   Averaging regions: ODB_REGIONS

   Element Label      Node Label         S.Mises         S.Mises
                                          @Loc 1          @Loc 2
-----------------------------------------------------------------
               1               1     1.17386E-03     1.17080E-03
               1              43     1.19368E-03     1.17295E-03
               1              56     1.12543E-03     1.12117E-03
               1            1034     1.14606E-03     1.12387E-03
               2              43     1.19368E-03     1.17295E-03
               2              44     1.19510E-03     1.16681E-03
               2            1034     1.14606E-03     1.12387E-03
               2            1035     1.14676E-03     1.12123E-03
               3               2     20.4976E-03     20.2729E-03
               3              44     1.19510E-03     1.16681E-03
               3              45     19.6593E-03     19.4833E-03
               3            1035     1.14676E-03     1.12123E-03
               4              55     982.033E-06     975.317E-06
               4              56     1.12543E-03     1.12117E-03
               4            1034     1.14606E-03     1.12387E-03
               4            1036     1.00278E-03     978.899E-06
               5            1034     1.14606E-03     1.12387E-03
               5            1035     1.14676E-03     1.12123E-03
               5            1036     1.00278E-03     978.899E-06
               5            1037     1.00474E-03     991.295E-06
               6              45     19.6593E-03     19.4833E-03
               6              46     17.4182E-03     17.3247E-03
               6            1035     1.14676E-03     1.12123E-03
               6            1037     1.00474E-03     991.295E-06
               7              54     763.102E-06     753.043E-06
               7              55     982.033E-06     975.317E-06
               7            1036     1.00278E-03     978.899E-06
               7            1038     782.710E-06     755.460E-06
               8            1036     1.00278E-03     978.899E-06
               8            1037     1.00474E-03     991.295E-06
               8            1038     782.710E-06     755.460E-06
               8            1039     790.046E-06     793.747E-06
               9              46     17.4182E-03     17.3247E-03
               9              47     13.6025E-03     13.9654E-03
               9            1037     1.00474E-03     991.295E-06
               9            1039     790.046E-06     793.747E-06
              10              53     479.123E-06     473.192E-06
              10              54     763.102E-06     753.043E-06
              10            1038     782.710E-06     755.460E-06
              10            1040     530.987E-06     495.042E-06
              11            1038     782.710E-06     755.460E-06
              11            1039     790.046E-06     793.747E-06
              11            1040     530.987E-06     495.042E-06
              11            1041     532.479E-06     575.216E-06
              12              47     13.6025E-03     13.9654E-03
              12              48     9.41521E-03     10.2273E-03
              12            1039     790.046E-06     793.747E-06
              12            1041     532.479E-06     575.216E-06
              13              52     318.893E-06     392.495E-06
              13              53     479.123E-06     473.192E-06
              13            1040     530.987E-06     495.042E-06
              13            1042     434.250E-06     430.682E-06
              14            1040     530.987E-06     495.042E-06
              14            1041     532.479E-06     575.216E-06
              14            1042     434.250E-06     430.682E-06
              14            1043     529.471E-06     602.717E-06
              15              48     9.41521E-03     10.2273E-03
              15              49     7.10245E-03     8.96129E-03
              15            1041     532.479E-06     575.216E-06
              15            1043     529.471E-06     602.717E-06
              16               4     273.311E-06     410.995E-06
              16              51     355.500E-06     413.853E-06
              16              52     318.893E-06     392.495E-06
              16            1042     434.250E-06     430.682E-06
              17              50     548.327E-06     644.018E-06
              17              51     355.500E-06     413.853E-06
              17            1042     434.250E-06     430.682E-06
              17            1043     529.471E-06     602.717E-06
              18               3     6.55896E-03     9.22767E-03
              18              49     7.10245E-03     8.96129E-03
              18              50     548.327E-06     644.018E-06
              18            1043     529.471E-06     602.717E-06
              19               2     20.4976E-03     20.2729E-03
              19              45     19.6593E-03     19.4833E-03
              19              57     40.0759E-03     39.5626E-03
              19            1044     38.5470E-03     38.0640E-03
              20              57     40.0759E-03     39.5626E-03
              20              58     40.1397E-03     39.8380E-03
              20            1044     38.5470E-03     38.0640E-03
              20            1045     38.6518E-03     38.3822E-03
              21              58     40.1397E-03     39.8380E-03
              21              59     40.0321E-03     39.8819E-03
              21            1045     38.6518E-03     38.3822E-03
              21            1046     38.5897E-03     38.5150E-03
              22              59     40.0321E-03     39.8819E-03
              22              60     40.1033E-03     39.7824E-03
              22            1046     38.5897E-03     38.5150E-03
              22            1047     38.8500E-03     38.5973E-03
              23              60     40.1033E-03     39.7824E-03
              23              61     39.7795E-03     39.9508E-03
              23            1047     38.8500E-03     38.5973E-03
              23            1048     38.8578E-03     39.2056E-03
              24              61     39.7795E-03     39.9508E-03
              24              62     40.0984E-03     40.1049E-03
              24            1048     38.8578E-03     39.2056E-03
              24            1049     39.7899E-03     39.5822E-03
              25              62     40.0984E-03     40.1049E-03
              25              63     40.1161E-03     39.3306E-03
              25            1049     39.7899E-03     39.5822E-03
              25            1050     39.8387E-03     39.0476E-03
              26              63     40.1161E-03     39.3306E-03
              26              64     38.8215E-03     38.3452E-03
              26            1050     39.8387E-03     39.0476E-03
              26            1051     37.9337E-03     37.8726E-03
              27              64     38.8215E-03     38.3452E-03
              27              65     38.2275E-03     37.7253E-03
              27            1051     37.9337E-03     37.8726E-03
              27            1052     37.3770E-03     36.9453E-03
              28              65     38.2275E-03     37.7253E-03
              28              66     38.5480E-03     37.5451E-03
              28            1052     37.3770E-03     36.9453E-03
              28            1053     38.0327E-03     37.3536E-03
              29              66     38.5480E-03     37.5451E-03
              29              67     38.6745E-03     37.7500E-03
              29            1053     38.0327E-03     37.3536E-03
              29            1054     38.6366E-03     38.2041E-03
              30              67     38.6745E-03     37.7500E-03
              30              68     38.5456E-03     37.9370E-03
              30            1054     38.6366E-03     38.2041E-03
              30            1055     39.1671E-03     39.0633E-03
              31              68     38.5456E-03     37.9370E-03
              31              69     38.4741E-03     38.3627E-03
              31            1055     39.1671E-03     39.0633E-03
              31            1056     39.9721E-03     40.0217E-03
              32              69     38.4741E-03     38.3627E-03
              32              70     38.3843E-03     38.6229E-03
              32            1056     39.9721E-03     40.0217E-03
              32            1057     40.7782E-03     40.5482E-03
              33              70     38.3843E-03     38.6229E-03
              33              71     37.7928E-03     39.0244E-03
              33            1057     40.7782E-03     40.5482E-03
              33            1058     40.7480E-03     41.9337E-03
              34              71     37.7928E-03     39.0244E-03
              34              72     38.6325E-03     39.2945E-03
              34            1058     40.7480E-03     41.9337E-03
              34            1059     42.7478E-03     42.3333E-03
              35              72     38.6325E-03     39.2945E-03
              35              73     38.8170E-03     37.7712E-03
              35            1059     42.7478E-03     42.3333E-03
              35            1060     42.5869E-03     41.1552E-03
              36              73     38.8170E-03     37.7712E-03
              36              74     37.0676E-03     36.8233E-03
              36            1060     42.5869E-03     41.1552E-03
              36            1061     39.1756E-03     40.1732E-03
              37              74     37.0676E-03     36.8233E-03
              37              75     36.7226E-03     36.2063E-03
              37            1061     39.1756E-03     40.1732E-03
              37            1062     39.3710E-03     38.7471E-03
              38              75     36.7226E-03     36.2063E-03
              38              76     37.3960E-03     35.5072E-03
              38            1062     39.3710E-03     38.7471E-03
              38            1063     40.8867E-03     39.4007E-03
              39              76     37.3960E-03     35.5072E-03
              39              77     37.8675E-03     36.1080E-03
              39            1063     40.8867E-03     39.4007E-03
              39            1064     41.7141E-03     41.2686E-03
              40              77     37.8675E-03     36.1080E-03
              40              78     37.8303E-03     36.5346E-03
              40            1064     41.7141E-03     41.2686E-03
              40            1065     42.9991E-03     42.2943E-03
              41              78     37.8303E-03     36.5346E-03
              41              79     37.7953E-03     37.2323E-03
              41            1065     42.9991E-03     42.2943E-03
              41            1066     43.9249E-03     43.7063E-03
              42              79     37.7953E-03     37.2323E-03
              42              80     37.7141E-03     38.1684E-03
              42            1066     43.9249E-03     43.7063E-03
              42            1067     45.0035E-03     45.0182E-03
              43              80     37.7141E-03     38.1684E-03
              43              81     37.6370E-03     38.5313E-03
              43            1067     45.0035E-03     45.0182E-03
              43            1068     45.9697E-03     45.5612E-03
              44              81     37.6370E-03     38.5313E-03
              44              82     36.7505E-03     39.0447E-03
              44            1068     45.9697E-03     45.5612E-03
              44            1069     45.4718E-03     47.5388E-03
              45              82     36.7505E-03     39.0447E-03
              45              83     38.0867E-03     39.2372E-03
              45            1069     45.4718E-03     47.5388E-03
              45            1070     48.2997E-03     47.5317E-03
              46              83     38.0867E-03     39.2372E-03
              46              84     38.3121E-03     36.9553E-03
              46            1070     48.2997E-03     47.5317E-03
              46            1071     47.6309E-03     45.5601E-03
              47              84     38.3121E-03     36.9553E-03
              47              85     35.9835E-03     36.1810E-03
              47            1071     47.6309E-03     45.5601E-03
              47            1072     42.5784E-03     45.0471E-03
              48              85     35.9835E-03     36.1810E-03
              48              86     36.1713E-03     35.6250E-03
              48            1072     42.5784E-03     45.0471E-03
              48            1073     44.1906E-03     43.1696E-03
              49              86     36.1713E-03     35.6250E-03
              49              87     37.2554E-03     34.6208E-03
              49            1073     44.1906E-03     43.1696E-03
              49            1074     46.5928E-03     44.2004E-03
              50              87     37.2554E-03     34.6208E-03
              50              88     37.9330E-03     35.6853E-03
              50            1074     46.5928E-03     44.2004E-03
              50            1075     47.2527E-03     46.9911E-03
              51              88     37.9330E-03     35.6853E-03
              51              89     38.0059E-03     36.3698E-03
              51            1075     47.2527E-03     46.9911E-03
              51            1076     49.0722E-03     47.9447E-03
              52              89     38.0059E-03     36.3698E-03
              52              90     38.0495E-03     37.3848E-03
              52            1076     49.0722E-03     47.9447E-03
              52            1077     50.1085E-03     49.7087E-03
              53              90     38.0495E-03     37.3848E-03
              53              91     37.9359E-03     38.5913E-03
              53            1077     50.1085E-03     49.7087E-03
              53            1078     51.2074E-03     51.1898E-03
              54              91     37.9359E-03     38.5913E-03
              54              92     37.7305E-03     38.9432E-03
              54            1078     51.2074E-03     51.1898E-03
              54            1079     52.1194E-03     51.5862E-03
              55              92     37.7305E-03     38.9432E-03
              55              93     36.4310E-03     39.4768E-03
              55            1079     52.1194E-03     51.5862E-03
              55            1080     51.0136E-03     53.8500E-03
              56              93     36.4310E-03     39.4768E-03
              56              94     38.0740E-03     39.4839E-03
              56            1080     51.0136E-03     53.8500E-03
              56            1081     54.3343E-03     53.2191E-03
              57              94     38.0740E-03     39.4839E-03
              57              95     38.1670E-03     36.5706E-03
              57            1081     54.3343E-03     53.2191E-03
              57            1082     53.0254E-03     50.4465E-03
              58              95     38.1670E-03     36.5706E-03
              58              96     35.7326E-03     36.7478E-03
              58            1082     53.0254E-03     50.4465E-03
              58            1083     47.0281E-03     51.0507E-03
              59              96     35.7326E-03     36.7478E-03
              59              97     36.8832E-03     37.1056E-03
              59            1083     47.0281E-03     51.0507E-03
              59            1084     50.6875E-03     49.6150E-03
              60              97     36.8832E-03     37.1056E-03
              60              98     37.8914E-03     36.2781E-03
              60            1084     50.6875E-03     49.6150E-03
              60            1085     53.4125E-03     51.5257E-03
              61              98     37.8914E-03     36.2781E-03
              61              99     38.0112E-03     37.9006E-03
              61            1085     53.4125E-03     51.5257E-03
              61            1086     53.6302E-03     55.1465E-03
              62              99     38.0112E-03     37.9006E-03
              62             100     37.7383E-03     37.9394E-03
              62            1086     53.6302E-03     55.1465E-03
              62            1087     55.3699E-03     54.9830E-03
              63             100     37.7383E-03     37.9394E-03
              63             101     35.9743E-03     38.3442E-03
              63            1087     55.3699E-03     54.9830E-03
              63            1088     54.0334E-03     57.5646E-03
              64             101     35.9743E-03     38.3442E-03
              64             102     37.3500E-03     38.2432E-03
              64            1088     54.0334E-03     57.5646E-03
              64            1089     57.1472E-03     56.4022E-03
              65             102     37.3500E-03     38.2432E-03
              65             103     36.9036E-03     35.1412E-03
              65            1089     57.1472E-03     56.4022E-03
              65            1090     55.3064E-03     52.7454E-03
              66               5     39.6799E-03     39.6354E-03
              66             103     36.9036E-03     35.1412E-03
              66             104     54.9877E-03     56.7280E-03
              66            1090     55.3064E-03     52.7454E-03
              67              45     19.6593E-03     19.4833E-03
              67              46     17.4182E-03     17.3247E-03
              67            1044     38.5470E-03     38.0640E-03
              67            1091     34.0213E-03     33.7710E-03
              68            1044     38.5470E-03     38.0640E-03
              68            1045     38.6518E-03     38.3822E-03
              68            1091     34.0213E-03     33.7710E-03
              68            1092     34.1363E-03     34.1329E-03
              69            1045     38.6518E-03     38.3822E-03
              69            1046     38.5897E-03     38.5150E-03
              69            1092     34.1363E-03     34.1329E-03
              69            1093     34.4979E-03     34.7353E-03
              70            1046     38.5897E-03     38.5150E-03
              70            1047     38.8500E-03     38.5973E-03
              70            1093     34.4979E-03     34.7353E-03
              70            1094     35.3440E-03     35.3801E-03
              71            1047     38.8500E-03     38.5973E-03
              71            1048     38.8578E-03     39.2056E-03
              71            1094     35.3440E-03     35.3801E-03
              71            1095     36.0741E-03     36.7097E-03
              72            1048     38.8578E-03     39.2056E-03
              72            1049     39.7899E-03     39.5822E-03
              72            1095     36.0741E-03     36.7097E-03
              72            1096     38.7385E-03     37.4841E-03
              73            1049     39.7899E-03     39.5822E-03
              73            1050     39.8387E-03     39.0476E-03
              73            1096     38.7385E-03     37.4841E-03
              73            1097     39.2684E-03     38.2287E-03
              74            1050     39.8387E-03     39.0476E-03
              74            1051     37.9337E-03     37.8726E-03
              74            1097     39.2684E-03     38.2287E-03
              74            1098     36.0459E-03     37.1899E-03
              75            1051     37.9337E-03     37.8726E-03
              75            1052     37.3770E-03     36.9453E-03
              75            1098     36.0459E-03     37.1899E-03
              75            1099     35.6028E-03     35.6630E-03
              76            1052     37.3770E-03     36.9453E-03
              76            1053     38.0327E-03     37.3536E-03
              76            1099     35.6028E-03     35.6630E-03
              76            1100     37.2225E-03     37.5696E-03
              77            1053     38.0327E-03     37.3536E-03
              77            1054     38.6366E-03     38.2041E-03
              77            1100     37.2225E-03     37.5696E-03
              77            1101     38.9749E-03     39.6583E-03
              78            1054     38.6366E-03     38.2041E-03
              78            1055     39.1671E-03     39.0633E-03
              78            1101     38.9749E-03     39.6583E-03
              78            1102     41.0071E-03     41.4400E-03
              79            1055     39.1671E-03     39.0633E-03
              79            1056     39.9721E-03     40.0217E-03
              79            1102     41.0071E-03     41.4400E-03
              79            1103     43.4250E-03     43.3284E-03
              80            1056     39.9721E-03     40.0217E-03
              80            1057     40.7782E-03     40.5482E-03
              80            1103     43.4250E-03     43.3284E-03
              80            1104     45.8691E-03     44.7530E-03
              81            1057     40.7782E-03     40.5482E-03
              81            1058     40.7480E-03     41.9337E-03
              81            1104     45.8691E-03     44.7530E-03
              81            1105     47.0704E-03     48.3077E-03
              82            1058     40.7480E-03     41.9337E-03
              82            1059     42.7478E-03     42.3333E-03
              82            1105     47.0704E-03     48.3077E-03
              82            1106     52.5270E-03     49.4684E-03
              83            1059     42.7478E-03     42.3333E-03
              83            1060     42.5869E-03     41.1552E-03
              83            1106     52.5270E-03     49.4684E-03
              83            1107     52.4107E-03     50.1968E-03
              84            1060     42.5869E-03     41.1552E-03
              84            1061     39.1756E-03     40.1732E-03
              84            1107     52.4107E-03     50.1968E-03
              84            1108     45.2820E-03     49.9756E-03
              85            1061     39.1756E-03     40.1732E-03
              85            1062     39.3710E-03     38.7471E-03
              85            1108     45.2820E-03     49.9756E-03
              85            1109     47.4600E-03     46.9037E-03
              86            1062     39.3710E-03     38.7471E-03
              86            1063     40.8867E-03     39.4007E-03
              86            1109     47.4600E-03     46.9037E-03
              86            1110     50.6341E-03     49.9242E-03
              87            1063     40.8867E-03     39.4007E-03
              87            1064     41.7141E-03     41.2686E-03
              87            1110     50.6341E-03     49.9242E-03
              87            1111     51.5854E-03     53.3753E-03
              88            1064     41.7141E-03     41.2686E-03
              88            1065     42.9991E-03     42.2943E-03
              88            1111     51.5854E-03     53.3753E-03
              88            1112     54.7622E-03     54.4291E-03
              89            1065     42.9991E-03     42.2943E-03
              89            1066     43.9249E-03     43.7063E-03
              89            1112     54.7622E-03     54.4291E-03
              89            1113     56.9580E-03     56.9227E-03
              90            1066     43.9249E-03     43.7063E-03
              90            1067     45.0035E-03     45.0182E-03
              90            1113     56.9580E-03     56.9227E-03
              90            1114     59.8125E-03     59.1201E-03
              91            1067     45.0035E-03     45.0182E-03
              91            1068     45.9697E-03     45.5612E-03
              91            1114     59.8125E-03     59.1201E-03
              91            1115     62.8542E-03     60.5480E-03
              92            1068     45.9697E-03     45.5612E-03
              92            1069     45.4718E-03     47.5388E-03
              92            1115     62.8542E-03     60.5480E-03
              92            1116     63.5559E-03     65.6840E-03
              93            1069     45.4718E-03     47.5388E-03
              93            1070     48.2997E-03     47.5317E-03
              93            1116     63.5559E-03     65.6840E-03
              93            1117     70.9246E-03     66.3044E-03
              94            1070     48.2997E-03     47.5317E-03
              94            1071     47.6309E-03     45.5601E-03
              94            1117     70.9246E-03     66.3044E-03
              94            1118     69.6021E-03     66.3775E-03
              95            1071     47.6309E-03     45.5601E-03
              95            1072     42.5784E-03     45.0471E-03
              95            1118     69.6021E-03     66.3775E-03
              95            1119     58.7471E-03     67.2435E-03
              96            1072     42.5784E-03     45.0471E-03
              96            1073     44.1906E-03     43.1696E-03
              96            1119     58.7471E-03     67.2435E-03
              96            1120     64.2138E-03     62.7631E-03
              97            1073     44.1906E-03     43.1696E-03
              97            1074     46.5928E-03     44.2004E-03
              97            1120     64.2138E-03     62.7631E-03
              97            1121     68.7826E-03     66.5655E-03
              98            1074     46.5928E-03     44.2004E-03
              98            1075     47.2527E-03     46.9911E-03
              98            1121     68.7826E-03     66.5655E-03
              98            1122     68.1924E-03     70.9425E-03
              99            1075     47.2527E-03     46.9911E-03
              99            1076     49.0722E-03     47.9447E-03
              99            1122     68.1924E-03     70.9425E-03
              99            1123     72.0349E-03     70.9610E-03
             100            1076     49.0722E-03     47.9447E-03
             100            1077     50.1085E-03     49.7087E-03
             100            1123     72.0349E-03     70.9610E-03
             100            1124     74.0291E-03     73.6942E-03
             101            1077     50.1085E-03     49.7087E-03
             101            1078     51.2074E-03     51.1898E-03
             101            1124     74.0291E-03     73.6942E-03
             101            1125     76.8445E-03     75.8650E-03
             102            1078     51.2074E-03     51.1898E-03
             102            1079     52.1194E-03     51.5862E-03
             102            1125     76.8445E-03     75.8650E-03
             102            1126     80.0260E-03     76.9915E-03
             103            1079     52.1194E-03     51.5862E-03
             103            1080     51.0136E-03     53.8500E-03
             103            1126     80.0260E-03     76.9915E-03
             103            1127     80.0345E-03     83.0375E-03
             104            1080     51.0136E-03     53.8500E-03
             104            1081     54.3343E-03     53.2191E-03
             104            1127     80.0345E-03     83.0375E-03
             104            1128     88.6768E-03     82.8131E-03
             105            1081     54.3343E-03     53.2191E-03
             105            1082     53.0254E-03     50.4465E-03
             105            1128     88.6768E-03     82.8131E-03
             105            1129     86.0849E-03     82.0291E-03
             106            1082     53.0254E-03     50.4465E-03
             106            1083     47.0281E-03     51.0507E-03
             106            1129     86.0849E-03     82.0291E-03
             106            1130     72.3028E-03     83.7551E-03
             107            1083     47.0281E-03     51.0507E-03
             107            1084     50.6875E-03     49.6150E-03
             107            1130     72.3028E-03     83.7551E-03
             107            1131     81.1143E-03     78.4435E-03
             108            1084     50.6875E-03     49.6150E-03
             108            1085     53.4125E-03     51.5257E-03
             108            1131     81.1143E-03     78.4435E-03
             108            1132     86.8450E-03     83.7384E-03
             109            1085     53.4125E-03     51.5257E-03
             109            1086     53.6302E-03     55.1465E-03
             109            1132     86.8450E-03     83.7384E-03
             109            1133     85.7305E-03     89.0810E-03
             110            1086     53.6302E-03     55.1465E-03
             110            1087     55.3699E-03     54.9830E-03
             110            1133     85.7305E-03     89.0810E-03
             110            1134     90.5039E-03     87.5413E-03
             111            1087     55.3699E-03     54.9830E-03
             111            1088     54.0334E-03     57.5646E-03
             111            1134     90.5039E-03     87.5413E-03
             111            1135     89.6920E-03     93.9032E-03
             112            1088     54.0334E-03     57.5646E-03
             112            1089     57.1472E-03     56.4022E-03
             112            1135     89.6920E-03     93.9032E-03
             112            1136     97.8582E-03     92.5053E-03
             113            1089     57.1472E-03     56.4022E-03
             113            1090     55.3064E-03     52.7454E-03
             113            1136     97.8582E-03     92.5053E-03
             113            1137     94.3326E-03     89.9740E-03
             114             104     54.9877E-03     56.7280E-03
             114             105     86.8287E-03     93.2633E-03
             114            1090     55.3064E-03     52.7454E-03
             114            1137     94.3326E-03     89.9740E-03
             115              46     17.4182E-03     17.3247E-03
             115              47     13.6025E-03     13.9654E-03
             115            1091     34.0213E-03     33.7710E-03
             115            1138     26.6587E-03     27.2126E-03
             116            1091     34.0213E-03     33.7710E-03
             116            1092     34.1363E-03     34.1329E-03
             116            1138     26.6587E-03     27.2126E-03
             116            1139     27.0912E-03     27.7107E-03
             117            1092     34.1363E-03     34.1329E-03
             117            1093     34.4979E-03     34.7353E-03
             117            1139     27.0912E-03     27.7107E-03
             117            1140     28.3521E-03     28.5681E-03
             118            1093     34.4979E-03     34.7353E-03
             118            1094     35.3440E-03     35.3801E-03
             118            1140     28.3521E-03     28.5681E-03
             118            1141     30.0955E-03     29.8136E-03
             119            1094     35.3440E-03     35.3801E-03
             119            1095     36.0741E-03     36.7097E-03
             119            1141     30.0955E-03     29.8136E-03
             119            1142     31.5319E-03     32.8366E-03
             120            1095     36.0741E-03     36.7097E-03
             120            1096     38.7385E-03     37.4841E-03
             120            1142     31.5319E-03     32.8366E-03
             120            1143     36.6544E-03     34.1730E-03
             121            1096     38.7385E-03     37.4841E-03
             121            1097     39.2684E-03     38.2287E-03
             121            1143     36.6544E-03     34.1730E-03
             121            1144     37.9863E-03     37.0410E-03
             122            1097     39.2684E-03     38.2287E-03
             122            1098     36.0459E-03     37.1899E-03
             122            1144     37.9863E-03     37.0410E-03
             122            1145     33.7456E-03     37.9737E-03
             123            1098     36.0459E-03     37.1899E-03
             123            1099     35.6028E-03     35.6630E-03
             123            1145     33.7456E-03     37.9737E-03
             123            1146     34.9199E-03     35.7283E-03
             124            1099     35.6028E-03     35.6630E-03
             124            1100     37.2225E-03     37.5696E-03
             124            1146     34.9199E-03     35.7283E-03
             124            1147     37.5877E-03     38.4564E-03
             125            1100     37.2225E-03     37.5696E-03
             125            1101     38.9749E-03     39.6583E-03
             125            1147     37.5877E-03     38.4564E-03
             125            1148     39.6901E-03     40.9293E-03
             126            1101     38.9749E-03     39.6583E-03
             126            1102     41.0071E-03     41.4400E-03
             126            1148     39.6901E-03     40.9293E-03
             126            1149     42.8259E-03     43.2737E-03
             127            1102     41.0071E-03     41.4400E-03
             127            1103     43.4250E-03     43.3284E-03
             127            1149     42.8259E-03     43.2737E-03
             127            1150     46.6217E-03     46.6432E-03
             128            1103     43.4250E-03     43.3284E-03
             128            1104     45.8691E-03     44.7530E-03
             128            1150     46.6217E-03     46.6432E-03
             128            1151     50.6204E-03     49.4084E-03
             129            1104     45.8691E-03     44.7530E-03
             129            1105     47.0704E-03     48.3077E-03
             129            1151     50.6204E-03     49.4084E-03
             129            1152     52.9259E-03     56.0002E-03
             130            1105     47.0704E-03     48.3077E-03
             130            1106     52.5270E-03     49.4684E-03
             130            1152     52.9259E-03     56.0002E-03
             130            1153     62.8995E-03     57.7187E-03
             131            1106     52.5270E-03     49.4684E-03
             131            1107     52.4107E-03     50.1968E-03
             131            1153     62.8995E-03     57.7187E-03
             131            1154     63.8378E-03     61.6017E-03
             132            1107     52.4107E-03     50.1968E-03
             132            1108     45.2820E-03     49.9756E-03
             132            1154     63.8378E-03     61.6017E-03
             132            1155     53.9311E-03     65.3509E-03
             133            1108     45.2820E-03     49.9756E-03
             133            1109     47.4600E-03     46.9037E-03
             133            1155     53.9311E-03     65.3509E-03
             133            1156     59.6643E-03     59.6773E-03
             134            1109     47.4600E-03     46.9037E-03
             134            1110     50.6341E-03     49.9242E-03
             134            1156     59.6643E-03     59.6773E-03
             134            1157     63.5276E-03     62.2924E-03
             135            1110     50.6341E-03     49.9242E-03
             135            1111     51.5854E-03     53.3753E-03
             135            1157     63.5276E-03     62.2924E-03
             135            1158     62.3487E-03     65.8507E-03
             136            1111     51.5854E-03     53.3753E-03
             136            1112     54.7622E-03     54.4291E-03
             136            1158     62.3487E-03     65.8507E-03
             136            1159     66.4816E-03     66.0313E-03
             137            1112     54.7622E-03     54.4291E-03
             137            1113     56.9580E-03     56.9227E-03
             137            1159     66.4816E-03     66.0313E-03
             137            1160     68.9078E-03     69.9434E-03
             138            1113     56.9580E-03     56.9227E-03
             138            1114     59.8125E-03     59.1201E-03
             138            1160     68.9078E-03     69.9434E-03
             138            1161     73.0785E-03     73.4923E-03
             139            1114     59.8125E-03     59.1201E-03
             139            1115     62.8542E-03     60.5480E-03
             139            1161     73.0785E-03     73.4923E-03
             139            1162     78.0308E-03     76.0887E-03
             140            1115     62.8542E-03     60.5480E-03
             140            1116     63.5559E-03     65.6840E-03
             140            1162     78.0308E-03     76.0887E-03
             140            1163     79.7789E-03     84.8825E-03
             141            1116     63.5559E-03     65.6840E-03
             141            1117     70.9246E-03     66.3044E-03
             141            1163     79.7789E-03     84.8825E-03
             141            1164     93.3199E-03     85.9110E-03
             142            1117     70.9246E-03     66.3044E-03
             142            1118     69.6021E-03     66.3775E-03
             142            1164     93.3199E-03     85.9110E-03
             142            1165     93.1922E-03     90.0534E-03
             143            1118     69.6021E-03     66.3775E-03
             143            1119     58.7471E-03     67.2435E-03
             143            1165     93.1922E-03     90.0534E-03
             143            1166     77.9572E-03     96.4332E-03
             144            1119     58.7471E-03     67.2435E-03
             144            1120     64.2138E-03     62.7631E-03
             144            1166     77.9572E-03     96.4332E-03
             144            1167     88.3915E-03     87.4943E-03
             145            1120     64.2138E-03     62.7631E-03
             145            1121     68.7826E-03     66.5655E-03
             145            1167     88.3915E-03     87.4943E-03
             145            1168     93.1878E-03     89.6172E-03
             146            1121     68.7826E-03     66.5655E-03
             146            1122     68.1924E-03     70.9425E-03
             146            1168     93.1878E-03     89.6172E-03
             146            1169     88.3536E-03     93.7108E-03
             147            1122     68.1924E-03     70.9425E-03
             147            1123     72.0349E-03     70.9610E-03
             147            1169     88.3536E-03     93.7108E-03
             147            1170     92.8184E-03     91.7663E-03
             148            1123     72.0349E-03     70.9610E-03
             148            1124     74.0291E-03     73.6942E-03
             148            1170     92.8184E-03     91.7663E-03
             148            1171     94.4644E-03     95.8049E-03
             149            1124     74.0291E-03     73.6942E-03
             149            1125     76.8445E-03     75.8650E-03
             149            1171     94.4644E-03     95.8049E-03
             149            1172     98.3718E-03     99.1220E-03
             150            1125     76.8445E-03     75.8650E-03
             150            1126     80.0260E-03     76.9915E-03
             150            1172     98.3718E-03     99.1220E-03
             150            1173     103.646E-03     101.158E-03
             151            1126     80.0260E-03     76.9915E-03
             151            1127     80.0345E-03     83.0375E-03
             151            1173     103.646E-03     101.158E-03
             151            1174     104.707E-03     111.453E-03
             152            1127     80.0345E-03     83.0375E-03
             152            1128     88.6768E-03     82.8131E-03
             152            1174     104.707E-03     111.453E-03
             152            1175     120.994E-03     111.731E-03
             153            1128     88.6768E-03     82.8131E-03
             153            1129     86.0849E-03     82.0291E-03
             153            1175     120.994E-03     111.731E-03
             153            1176     119.798E-03     115.906E-03
             154            1129     86.0849E-03     82.0291E-03
             154            1130     72.3028E-03     83.7551E-03
             154            1176     119.798E-03     115.906E-03
             154            1177     99.5095E-03     123.335E-03
             155            1130     72.3028E-03     83.7551E-03
             155            1131     81.1143E-03     78.4435E-03
             155            1177     99.5095E-03     123.335E-03
             155            1178     113.560E-03     110.730E-03
             156            1131     81.1143E-03     78.4435E-03
             156            1132     86.8450E-03     83.7384E-03
             156            1178     113.560E-03     110.730E-03
             156            1179     119.353E-03     113.785E-03
             157            1132     86.8450E-03     83.7384E-03
             157            1133     85.7305E-03     89.0810E-03
             157            1179     119.353E-03     113.785E-03
             157            1180     113.585E-03     118.956E-03
             158            1133     85.7305E-03     89.0810E-03
             158            1134     90.5039E-03     87.5413E-03
             158            1180     113.585E-03     118.956E-03
             158            1181     119.863E-03     114.806E-03
             159            1134     90.5039E-03     87.5413E-03
             159            1135     89.6920E-03     93.9032E-03
             159            1181     119.863E-03     114.806E-03
             159            1182     118.915E-03     125.466E-03
             160            1135     89.6920E-03     93.9032E-03
             160            1136     97.8582E-03     92.5053E-03
             160            1182     118.915E-03     125.466E-03
             160            1183     134.553E-03     124.427E-03
             161            1136     97.8582E-03     92.5053E-03
             161            1137     94.3326E-03     89.9740E-03
             161            1183     134.553E-03     124.427E-03
             161            1184     132.456E-03     127.293E-03
             162             105     86.8287E-03     93.2633E-03
             162             106     118.340E-03     131.675E-03
             162            1137     94.3326E-03     89.9740E-03
             162            1184     132.456E-03     127.293E-03
             163              47     13.6025E-03     13.9654E-03
             163              48     9.41521E-03     10.2273E-03
             163            1138     26.6587E-03     27.2126E-03
             163            1185     18.6275E-03     19.5364E-03
             164            1138     26.6587E-03     27.2126E-03
             164            1139     27.0912E-03     27.7107E-03
             164            1185     18.6275E-03     19.5364E-03
             164            1186     18.7434E-03     18.7871E-03
             165            1139     27.0912E-03     27.7107E-03
             165            1140     28.3521E-03     28.5681E-03
             165            1186     18.7434E-03     18.7871E-03
             165            1187     20.1060E-03     19.6856E-03
             166            1140     28.3521E-03     28.5681E-03
             166            1141     30.0955E-03     29.8136E-03
             166            1187     20.1060E-03     19.6856E-03
             166            1188     23.2632E-03     22.7021E-03
             167            1141     30.0955E-03     29.8136E-03
             167            1142     31.5319E-03     32.8366E-03
             167            1188     23.2632E-03     22.7021E-03
             167            1189     26.3542E-03     28.9551E-03
             168            1142     31.5319E-03     32.8366E-03
             168            1143     36.6544E-03     34.1730E-03
             168            1189     26.3542E-03     28.9551E-03
             168            1190     35.1763E-03     32.4991E-03
             169            1143     36.6544E-03     34.1730E-03
             169            1144     37.9863E-03     37.0410E-03
             169            1190     35.1763E-03     32.4991E-03
             169            1191     37.4994E-03     37.4743E-03
             170            1144     37.9863E-03     37.0410E-03
             170            1145     33.7456E-03     37.9737E-03
             170            1191     37.4994E-03     37.4743E-03
             170            1192     32.6906E-03     40.1080E-03
             171            1145     33.7456E-03     37.9737E-03
             171            1146     34.9199E-03     35.7283E-03
             171            1192     32.6906E-03     40.1080E-03
             171            1193     35.8428E-03     36.3848E-03
             172            1146     34.9199E-03     35.7283E-03
             172            1147     37.5877E-03     38.4564E-03
             172            1193     35.8428E-03     36.3848E-03
             172            1194     37.7562E-03     38.4869E-03
             173            1147     37.5877E-03     38.4564E-03
             173            1148     39.6901E-03     40.9293E-03
             173            1194     37.7562E-03     38.4869E-03
             173            1195     39.6905E-03     41.4341E-03
             174            1148     39.6901E-03     40.9293E-03
             174            1149     42.8259E-03     43.2737E-03
             174            1195     39.6905E-03     41.4341E-03
             174            1196     44.0036E-03     45.1903E-03
             175            1149     42.8259E-03     43.2737E-03
             175            1150     46.6217E-03     46.6432E-03
             175            1196     44.0036E-03     45.1903E-03
             175            1197     48.9818E-03     50.7452E-03
             176            1150     46.6217E-03     46.6432E-03
             176            1151     50.6204E-03     49.4084E-03
             176            1197     48.9818E-03     50.7452E-03
             176            1198     55.0377E-03     54.9052E-03
             177            1151     50.6204E-03     49.4084E-03
             177            1152     52.9259E-03     56.0002E-03
             177            1198     55.0377E-03     54.9052E-03
             177            1199     58.0232E-03     64.4360E-03
             178            1152     52.9259E-03     56.0002E-03
             178            1153     62.8995E-03     57.7187E-03
             178            1199     58.0232E-03     64.4360E-03
             178            1200     71.8498E-03     67.4439E-03
             179            1153     62.8995E-03     57.7187E-03
             179            1154     63.8378E-03     61.6017E-03
             179            1200     71.8498E-03     67.4439E-03
             179            1201     74.0871E-03     73.3555E-03
             180            1154     63.8378E-03     61.6017E-03
             180            1155     53.9311E-03     65.3509E-03
             180            1201     74.0871E-03     73.3555E-03
             180            1202     62.8296E-03     80.0562E-03
             181            1155     53.9311E-03     65.3509E-03
             181            1156     59.6643E-03     59.6773E-03
             181            1202     62.8296E-03     80.0562E-03
             181            1203     71.2502E-03     71.4718E-03
             182            1156     59.6643E-03     59.6773E-03
             182            1157     63.5276E-03     62.2924E-03
             182            1203     71.2502E-03     71.4718E-03
             182            1204     73.3097E-03     72.1107E-03
             183            1157     63.5276E-03     62.2924E-03
             183            1158     62.3487E-03     65.8507E-03
             183            1204     73.3097E-03     72.1107E-03
             183            1205     70.0757E-03     75.8375E-03
             184            1158     62.3487E-03     65.8507E-03
             184            1159     66.4816E-03     66.0313E-03
             184            1205     70.0757E-03     75.8375E-03
             184            1206     75.7484E-03     76.6852E-03
             185            1159     66.4816E-03     66.0313E-03
             185            1160     68.9078E-03     69.9434E-03
             185            1206     75.7484E-03     76.6852E-03
             185            1207     78.5780E-03     82.4319E-03
             186            1160     68.9078E-03     69.9434E-03
             186            1161     73.0785E-03     73.4923E-03
             186            1207     78.5780E-03     82.4319E-03
             186            1208     83.8709E-03     87.5476E-03
             187            1161     73.0785E-03     73.4923E-03
             187            1162     78.0308E-03     76.0887E-03
             187            1208     83.8709E-03     87.5476E-03
             187            1209     90.7165E-03     90.9936E-03
             188            1162     78.0308E-03     76.0887E-03
             188            1163     79.7789E-03     84.8825E-03
             188            1209     90.7165E-03     90.9936E-03
             188            1210     92.3385E-03     102.494E-03
             189            1163     79.7789E-03     84.8825E-03
             189            1164     93.3199E-03     85.9110E-03
             189            1210     92.3385E-03     102.494E-03
             189            1211     110.573E-03     104.507E-03
             190            1164     93.3199E-03     85.9110E-03
             190            1165     93.1922E-03     90.0534E-03
             190            1211     110.573E-03     104.507E-03
             190            1212     112.423E-03     111.334E-03
             191            1165     93.1922E-03     90.0534E-03
             191            1166     77.9572E-03     96.4332E-03
             191            1212     112.423E-03     111.334E-03
             191            1213     95.0590E-03     121.973E-03
             192            1166     77.9572E-03     96.4332E-03
             192            1167     88.3915E-03     87.4943E-03
             192            1213     95.0590E-03     121.973E-03
             192            1214     108.851E-03     108.725E-03
             193            1167     88.3915E-03     87.4943E-03
             193            1168     93.1878E-03     89.6172E-03
             193            1214     108.851E-03     108.725E-03
             193            1215     110.875E-03     107.834E-03
             194            1168     93.1878E-03     89.6172E-03
             194            1169     88.3536E-03     93.7108E-03
             194            1215     110.875E-03     107.834E-03
             194            1216     102.589E-03     111.878E-03
             195            1169     88.3536E-03     93.7108E-03
             195            1170     92.8184E-03     91.7663E-03
             195            1216     102.589E-03     111.878E-03
             195            1217     108.870E-03     110.086E-03
             196            1170     92.8184E-03     91.7663E-03
             196            1171     94.4644E-03     95.8049E-03
             196            1217     108.870E-03     110.086E-03
             196            1218     110.495E-03     115.979E-03
             197            1171     94.4644E-03     95.8049E-03
             197            1172     98.3718E-03     99.1220E-03
             197            1218     110.495E-03     115.979E-03
             197            1219     115.331E-03     120.651E-03
             198            1172     98.3718E-03     99.1220E-03
             198            1173     103.646E-03     101.158E-03
             198            1219     115.331E-03     120.651E-03
             198            1220     122.549E-03     123.151E-03
             199            1173     103.646E-03     101.158E-03
             199            1174     104.707E-03     111.453E-03
             199            1220     122.549E-03     123.151E-03
             199            1221     122.941E-03     136.219E-03
             200            1174     104.707E-03     111.453E-03
             200            1175     120.994E-03     111.731E-03
             200            1221     122.941E-03     136.219E-03
             200            1222     144.908E-03     137.436E-03
             201            1175     120.994E-03     111.731E-03
             201            1176     119.798E-03     115.906E-03
             201            1222     144.908E-03     137.436E-03
             201            1223     146.472E-03     145.125E-03
             202            1176     119.798E-03     115.906E-03
             202            1177     99.5095E-03     123.335E-03
             202            1223     146.472E-03     145.125E-03
             202            1224     122.749E-03     157.673E-03
             203            1177     99.5095E-03     123.335E-03
             203            1178     113.560E-03     110.730E-03
             203            1224     122.749E-03     157.673E-03
             203            1225     140.520E-03     138.986E-03
             204            1178     113.560E-03     110.730E-03
             204            1179     119.353E-03     113.785E-03
             204            1225     140.520E-03     138.986E-03
             204            1226     142.413E-03     138.227E-03
             205            1179     119.353E-03     113.785E-03
             205            1180     113.585E-03     118.956E-03
             205            1226     142.413E-03     138.227E-03
             205            1227     132.162E-03     143.563E-03
             206            1180     113.585E-03     118.956E-03
             206            1181     119.863E-03     114.806E-03
             206            1227     132.162E-03     143.563E-03
             206            1228     141.277E-03     138.359E-03
             207            1181     119.863E-03     114.806E-03
             207            1182     118.915E-03     125.466E-03
             207            1228     141.277E-03     138.359E-03
             207            1229     138.792E-03     152.861E-03
             208            1182     118.915E-03     125.466E-03
             208            1183     134.553E-03     124.427E-03
             208            1229     138.792E-03     152.861E-03
             208            1230     160.950E-03     152.907E-03
             209            1183     134.553E-03     124.427E-03
             209            1184     132.456E-03     127.293E-03
             209            1230     160.950E-03     152.907E-03
             209            1231     162.711E-03     160.407E-03
             210             106     118.340E-03     131.675E-03
             210             107     144.032E-03     164.326E-03
             210            1184     132.456E-03     127.293E-03
             210            1231     162.711E-03     160.407E-03
             211              48     9.41521E-03     10.2273E-03
             211              49     7.10245E-03     8.96129E-03
             211            1185     18.6275E-03     19.5364E-03
             211            1232     12.4812E-03     13.4916E-03
             212            1185     18.6275E-03     19.5364E-03
             212            1186     18.7434E-03     18.7871E-03
             212            1232     12.4812E-03     13.4916E-03
             212            1233     10.6658E-03     8.88203E-03
             213            1186     18.7434E-03     18.7871E-03
             213            1187     20.1060E-03     19.6856E-03
             213            1233     10.6658E-03     8.88203E-03
             213            1234     12.3739E-03     11.8321E-03
             214            1187     20.1060E-03     19.6856E-03
             214            1188     23.2632E-03     22.7021E-03
             214            1234     12.3739E-03     11.8321E-03
             214            1235     18.6094E-03     18.0855E-03
             215            1188     23.2632E-03     22.7021E-03
             215            1189     26.3542E-03     28.9551E-03
             215            1235     18.6094E-03     18.0855E-03
             215            1236     24.4006E-03     26.9419E-03
             216            1189     26.3542E-03     28.9551E-03
             216            1190     35.1763E-03     32.4991E-03
             216            1236     24.4006E-03     26.9419E-03
             216            1237     35.8011E-03     33.5616E-03
             217            1190     35.1763E-03     32.4991E-03
             217            1191     37.4994E-03     37.4743E-03
             217            1237     35.8011E-03     33.5616E-03
             217            1238     41.9115E-03     41.9776E-03
             218            1191     37.4994E-03     37.4743E-03
             218            1192     32.6906E-03     40.1080E-03
             218            1238     41.9115E-03     41.9776E-03
             218            1239     34.5538E-03     40.7085E-03
             219            1192     32.6906E-03     40.1080E-03
             219            1193     35.8428E-03     36.3848E-03
             219            1239     34.5538E-03     40.7085E-03
             219            1240     33.1118E-03     31.7264E-03
             220            1193     35.8428E-03     36.3848E-03
             220            1194     37.7562E-03     38.4869E-03
             220            1240     33.1118E-03     31.7264E-03
             220            1241     36.0778E-03     35.6537E-03
             221            1194     37.7562E-03     38.4869E-03
             221            1195     39.6905E-03     41.4341E-03
             221            1241     36.0778E-03     35.6537E-03
             221            1242     40.1951E-03     41.2577E-03
             222            1195     39.6905E-03     41.4341E-03
             222            1196     44.0036E-03     45.1903E-03
             222            1242     40.1951E-03     41.2577E-03
             222            1243     46.4840E-03     47.1031E-03
             223            1196     44.0036E-03     45.1903E-03
             223            1197     48.9818E-03     50.7452E-03
             223            1243     46.4840E-03     47.1031E-03
             223            1244     52.6274E-03     54.2849E-03
             224            1197     48.9818E-03     50.7452E-03
             224            1198     55.0377E-03     54.9052E-03
             224            1244     52.6274E-03     54.2849E-03
             224            1245     60.2673E-03     59.6934E-03
             225            1198     55.0377E-03     54.9052E-03
             225            1199     58.0232E-03     64.4360E-03
             225            1245     60.2673E-03     59.6934E-03
             225            1246     64.5022E-03     69.9880E-03
             226            1199     58.0232E-03     64.4360E-03
             226            1200     71.8498E-03     67.4439E-03
             226            1246     64.5022E-03     69.9880E-03
             226            1247     78.7962E-03     75.2158E-03
             227            1200     71.8498E-03     67.4439E-03
             227            1201     74.0871E-03     73.3555E-03
             227            1247     78.7962E-03     75.2158E-03
             227            1248     84.7969E-03     83.8630E-03
             228            1201     74.0871E-03     73.3555E-03
             228            1202     62.8296E-03     80.0562E-03
             228            1248     84.7969E-03     83.8630E-03
             228            1249     72.5072E-03     86.2134E-03
             229            1202     62.8296E-03     80.0562E-03
             229            1203     71.2502E-03     71.4718E-03
             229            1249     72.5072E-03     86.2134E-03
             229            1250     75.2716E-03     72.9265E-03
             230            1203     71.2502E-03     71.4718E-03
             230            1204     73.3097E-03     72.1107E-03
             230            1250     75.2716E-03     72.9265E-03
             230            1251     77.1834E-03     75.1649E-03
             231            1204     73.3097E-03     72.1107E-03
             231            1205     70.0757E-03     75.8375E-03
             231            1251     77.1834E-03     75.1649E-03
             231            1252     76.8528E-03     80.8533E-03
             232            1205     70.0757E-03     75.8375E-03
             232            1206     75.7484E-03     76.6852E-03
             232            1252     76.8528E-03     80.8533E-03
             232            1253     83.8749E-03     84.2005E-03
             233            1206     75.7484E-03     76.6852E-03
             233            1207     78.5780E-03     82.4319E-03
             233            1253     83.8749E-03     84.2005E-03
             233            1254     88.4127E-03     90.8731E-03
             234            1207     78.5780E-03     82.4319E-03
             234            1208     83.8709E-03     87.5476E-03
             234            1254     88.4127E-03     90.8731E-03
             234            1255     94.2610E-03     97.1347E-03
             235            1208     83.8709E-03     87.5476E-03
             235            1209     90.7165E-03     90.9936E-03
             235            1255     94.2610E-03     97.1347E-03
             235            1256     102.006E-03     101.434E-03
             236            1209     90.7165E-03     90.9936E-03
             236            1210     92.3385E-03     102.494E-03
             236            1256     102.006E-03     101.434E-03
             236            1257     104.507E-03     112.759E-03
             237            1210     92.3385E-03     102.494E-03
             237            1211     110.573E-03     104.507E-03
             237            1257     104.507E-03     112.759E-03
             237            1258     121.818E-03     116.791E-03
             238            1211     110.573E-03     104.507E-03
             238            1212     112.423E-03     111.334E-03
             238            1258     121.818E-03     116.791E-03
             238            1259     127.975E-03     126.092E-03
             239            1212     112.423E-03     111.334E-03
             239            1213     95.0590E-03     121.973E-03
             239            1259     127.975E-03     126.092E-03
             239            1260     111.301E-03     132.552E-03
             240            1213     95.0590E-03     121.973E-03
             240            1214     108.851E-03     108.725E-03
             240            1260     111.301E-03     132.552E-03
             240            1261     118.496E-03     115.295E-03
             241            1214     108.851E-03     108.725E-03
             241            1215     110.875E-03     107.834E-03
             241            1261     118.496E-03     115.295E-03
             241            1262     119.301E-03     115.734E-03
             242            1215     110.875E-03     107.834E-03
             242            1216     102.589E-03     111.878E-03
             242            1262     119.301E-03     115.734E-03
             242            1263     114.658E-03     121.417E-03
             243            1216     102.589E-03     111.878E-03
             243            1217     108.870E-03     110.086E-03
             243            1263     114.658E-03     121.417E-03
             243            1264     122.230E-03     122.483E-03
             244            1217     108.870E-03     110.086E-03
             244            1218     110.495E-03     115.979E-03
             244            1264     122.230E-03     122.483E-03
             244            1265     125.552E-03     129.150E-03
             245            1218     110.495E-03     115.979E-03
             245            1219     115.331E-03     120.651E-03
             245            1265     125.552E-03     129.150E-03
             245            1266     130.842E-03     134.816E-03
             246            1219     115.331E-03     120.651E-03
             246            1220     122.549E-03     123.151E-03
             246            1266     130.842E-03     134.816E-03
             246            1267     138.630E-03     138.082E-03
             247            1220     122.549E-03     123.151E-03
             247            1221     122.941E-03     136.219E-03
             247            1267     138.630E-03     138.082E-03
             247            1268     139.676E-03     150.300E-03
             248            1221     122.941E-03     136.219E-03
             248            1222     144.908E-03     137.436E-03
             248            1268     139.676E-03     150.300E-03
             248            1269     159.681E-03     153.380E-03
             249            1222     144.908E-03     137.436E-03
             249            1223     146.472E-03     145.125E-03
             249            1269     159.681E-03     153.380E-03
             249            1270     166.109E-03     163.393E-03
             250            1223     146.472E-03     145.125E-03
             250            1224     122.749E-03     157.673E-03
             250            1270     166.109E-03     163.393E-03
             250            1271     144.692E-03     172.578E-03
             251            1224     122.749E-03     157.673E-03
             251            1225     140.520E-03     138.986E-03
             251            1271     144.692E-03     172.578E-03
             251            1272     155.149E-03     151.143E-03
             252            1225     140.520E-03     138.986E-03
             252            1226     142.413E-03     138.227E-03
             252            1272     155.149E-03     151.143E-03
             252            1273     155.401E-03     150.891E-03
             253            1226     142.413E-03     138.227E-03
             253            1227     132.162E-03     143.563E-03
             253            1273     155.401E-03     150.891E-03
             253            1274     148.139E-03     158.026E-03
             254            1227     132.162E-03     143.563E-03
             254            1228     141.277E-03     138.359E-03
             254            1274     148.139E-03     158.026E-03
             254            1275     158.854E-03     155.470E-03
             255            1228     141.277E-03     138.359E-03
             255            1229     138.792E-03     152.861E-03
             255            1275     158.854E-03     155.470E-03
             255            1276     157.270E-03     169.587E-03
             256            1229     138.792E-03     152.861E-03
             256            1230     160.950E-03     152.907E-03
             256            1276     157.270E-03     169.587E-03
             256            1277     178.172E-03     171.399E-03
             257            1230     160.950E-03     152.907E-03
             257            1231     162.711E-03     160.407E-03
             257            1277     178.172E-03     171.399E-03
             257            1278     185.006E-03     181.746E-03
             258             107     144.032E-03     164.326E-03
             258             108     165.043E-03     182.221E-03
             258            1231     162.711E-03     160.407E-03
             258            1278     185.006E-03     181.746E-03
             259               3     6.55896E-03     9.22767E-03
             259              49     7.10245E-03     8.96129E-03
             259             155     11.6152E-03     13.1821E-03
             259            1232     12.4812E-03     13.4916E-03
             260             154     11.0108E-03     9.06988E-03
             260             155     11.6152E-03     13.1821E-03
             260            1232     12.4812E-03     13.4916E-03
             260            1233     10.6658E-03     8.88203E-03
             261             153     13.5885E-03     13.2705E-03
             261             154     11.0108E-03     9.06988E-03
             261            1233     10.6658E-03     8.88203E-03
             261            1234     12.3739E-03     11.8321E-03
             262             152     20.1249E-03     19.5998E-03
             262             153     13.5885E-03     13.2705E-03
             262            1234     12.3739E-03     11.8321E-03
             262            1235     18.6094E-03     18.0855E-03
             263             151     26.1602E-03     27.2942E-03
             263             152     20.1249E-03     19.5998E-03
             263            1235     18.6094E-03     18.0855E-03
             263            1236     24.4006E-03     26.9419E-03
             264             150     35.1320E-03     33.9101E-03
             264             151     26.1602E-03     27.2942E-03
             264            1236     24.4006E-03     26.9419E-03
             264            1237     35.8011E-03     33.5616E-03
             265             149     42.7267E-03     43.3806E-03
             265             150     35.1320E-03     33.9101E-03
             265            1237     35.8011E-03     33.5616E-03
             265            1238     41.9115E-03     41.9776E-03
             266             148     36.0455E-03     38.9457E-03
             266             149     42.7267E-03     43.3806E-03
             266            1238     41.9115E-03     41.9776E-03
             266            1239     34.5538E-03     40.7085E-03
             267             147     31.9299E-03     29.8481E-03
             267             148     36.0455E-03     38.9457E-03
             267            1239     34.5538E-03     40.7085E-03
             267            1240     33.1118E-03     31.7264E-03
             268             146     38.0532E-03     37.1295E-03
             268             147     31.9299E-03     29.8481E-03
             268            1240     33.1118E-03     31.7264E-03
             268            1241     36.0778E-03     35.6537E-03
             269             145     44.1958E-03     44.1053E-03
             269             146     38.0532E-03     37.1295E-03
             269            1241     36.0778E-03     35.6537E-03
             269            1242     40.1951E-03     41.2577E-03
             270             144     50.6380E-03     50.3715E-03
             270             145     44.1958E-03     44.1053E-03
             270            1242     40.1951E-03     41.2577E-03
             270            1243     46.4840E-03     47.1031E-03
             271             143     56.5659E-03     57.0360E-03
             271             144     50.6380E-03     50.3715E-03
             271            1243     46.4840E-03     47.1031E-03
             271            1244     52.6274E-03     54.2849E-03
             272             142     63.2982E-03     62.5903E-03
             272             143     56.5659E-03     57.0360E-03
             272            1244     52.6274E-03     54.2849E-03
             272            1245     60.2673E-03     59.6934E-03
             273             141     68.4108E-03     70.6508E-03
             273             142     63.2982E-03     62.5903E-03
             273            1245     60.2673E-03     59.6934E-03
             273            1246     64.5022E-03     69.9880E-03
             274             140     78.0450E-03     75.9521E-03
             274             141     68.4108E-03     70.6508E-03
             274            1246     64.5022E-03     69.9880E-03
             274            1247     78.7962E-03     75.2158E-03
             275             139     85.2217E-03     84.8828E-03
             275             140     78.0450E-03     75.9521E-03
             275            1247     78.7962E-03     75.2158E-03
             275            1248     84.7969E-03     83.8630E-03
             276             138     76.4925E-03     82.0400E-03
             276             139     85.2217E-03     84.8828E-03
             276            1248     84.7969E-03     83.8630E-03
             276            1249     72.5072E-03     86.2134E-03
             277             137     73.9713E-03     70.7035E-03
             277             138     76.4925E-03     82.0400E-03
             277            1249     72.5072E-03     86.2134E-03
             277            1250     75.2716E-03     72.9265E-03
             278             136     79.1106E-03     77.2704E-03
             278             137     73.9713E-03     70.7035E-03
             278            1250     75.2716E-03     72.9265E-03
             278            1251     77.1834E-03     75.1649E-03
             279             135     83.5131E-03     84.1637E-03
             279             136     79.1106E-03     77.2704E-03
             279            1251     77.1834E-03     75.1649E-03
             279            1252     76.8528E-03     80.8533E-03
             280             134     89.6518E-03     89.2178E-03
             280             135     83.5131E-03     84.1637E-03
             280            1252     76.8528E-03     80.8533E-03
             280            1253     83.8749E-03     84.2005E-03
             281             133     95.1060E-03     95.2443E-03
             281             134     89.6518E-03     89.2178E-03
             281            1253     83.8749E-03     84.2005E-03
             281            1254     88.4127E-03     90.8731E-03
             282             132     100.380E-03     101.132E-03
             282             133     95.1060E-03     95.2443E-03
             282            1254     88.4127E-03     90.8731E-03
             282            1255     94.2610E-03     97.1347E-03
             283             131     106.717E-03     105.781E-03
             283             132     100.380E-03     101.132E-03
             283            1255     94.2610E-03     97.1347E-03
             283            1256     102.006E-03     101.434E-03
             284             130     110.796E-03     113.889E-03
             284             131     106.717E-03     105.781E-03
             284            1256     102.006E-03     101.434E-03
             284            1257     104.507E-03     112.759E-03
             285             129     120.954E-03     117.908E-03
             285             130     110.796E-03     113.889E-03
             285            1257     104.507E-03     112.759E-03
             285            1258     121.818E-03     116.791E-03
             286             128     127.795E-03     126.372E-03
             286             129     120.954E-03     117.908E-03
             286            1258     121.818E-03     116.791E-03
             286            1259     127.975E-03     126.092E-03
             287             127     117.490E-03     125.889E-03
             287             128     127.795E-03     126.372E-03
             287            1259     127.975E-03     126.092E-03
             287            1260     111.301E-03     132.552E-03
             288             126     116.977E-03     112.791E-03
             288             127     117.490E-03     125.889E-03
             288            1260     111.301E-03     132.552E-03
             288            1261     118.496E-03     115.295E-03
             289             125     121.186E-03     118.357E-03
             289             126     116.977E-03     112.791E-03
             289            1261     118.496E-03     115.295E-03
             289            1262     119.301E-03     115.734E-03
             290             124     123.736E-03     125.289E-03
             290             125     121.186E-03     118.357E-03
             290            1262     119.301E-03     115.734E-03
             290            1263     114.658E-03     121.417E-03
             291             123     129.801E-03     129.085E-03
             291             124     123.736E-03     125.289E-03
             291            1263     114.658E-03     121.417E-03
             291            1264     122.230E-03     122.483E-03
             292             122     134.516E-03     134.887E-03
             292             123     129.801E-03     129.085E-03
             292            1264     122.230E-03     122.483E-03
             292            1265     125.552E-03     129.150E-03
             293             121     139.292E-03     140.219E-03
             293             122     134.516E-03     134.887E-03
             293            1265     125.552E-03     129.150E-03
             293            1266     130.842E-03     134.816E-03
             294             120     145.250E-03     144.087E-03
             294             121     139.292E-03     140.219E-03
             294            1266     130.842E-03     134.816E-03
             294            1267     138.630E-03     138.082E-03
             295             119     148.427E-03     152.205E-03
             295             120     145.250E-03     144.087E-03
             295            1267     138.630E-03     138.082E-03
             295            1268     139.676E-03     150.300E-03
             296             118     159.024E-03     155.093E-03
             296             119     148.427E-03     152.205E-03
             296            1268     139.676E-03     150.300E-03
             296            1269     159.681E-03     153.380E-03
             297             117     165.579E-03     163.145E-03
             297             118     159.024E-03     155.093E-03
             297            1269     159.681E-03     153.380E-03
             297            1270     166.109E-03     163.393E-03
             298             116     153.491E-03     164.548E-03
             298             117     165.579E-03     163.145E-03
             298            1270     166.109E-03     163.393E-03
             298            1271     144.692E-03     172.578E-03
             299             115     154.372E-03     149.856E-03
             299             116     153.491E-03     164.548E-03
             299            1271     144.692E-03     172.578E-03
             299            1272     155.149E-03     151.143E-03
             300             114     158.593E-03     154.895E-03
             300             115     154.372E-03     149.856E-03
             300            1272     155.149E-03     151.143E-03
             300            1273     155.401E-03     150.891E-03
             301             113     159.503E-03     162.966E-03
             301             114     158.593E-03     154.895E-03
             301            1273     155.401E-03     150.891E-03
             301            1274     148.139E-03     158.026E-03
             302             112     167.031E-03     164.451E-03
             302             113     159.503E-03     162.966E-03
             302            1274     148.139E-03     158.026E-03
             302            1275     158.854E-03     155.470E-03
             303             111     168.977E-03     173.656E-03
             303             112     167.031E-03     164.451E-03
             303            1275     158.854E-03     155.470E-03
             303            1276     157.270E-03     169.587E-03
             304             110     179.907E-03     175.327E-03
             304             111     168.977E-03     173.656E-03
             304            1276     157.270E-03     169.587E-03
             304            1277     178.172E-03     171.399E-03
             305             109     185.963E-03     183.054E-03
             305             110     179.907E-03     175.327E-03
             305            1277     178.172E-03     171.399E-03
             305            1278     185.006E-03     181.746E-03
             306               6     173.222E-03     180.235E-03
             306             108     165.043E-03     182.221E-03
             306             109     185.963E-03     183.054E-03
             306            1278     185.006E-03     181.746E-03
             307               5     39.6799E-03     39.6354E-03
             307             104     54.9877E-03     56.7280E-03
             307             156     36.6390E-03     37.3025E-03
             307            1279     54.2408E-03     54.7126E-03
             308             156     36.6390E-03     37.3025E-03
             308             157     31.2687E-03     34.8588E-03
             308            1279     54.2408E-03     54.7126E-03
             308            1280     49.3707E-03     54.1625E-03
             309             157     31.2687E-03     34.8588E-03
             309             158     36.4874E-03     37.9993E-03
             309            1280     49.3707E-03     54.1625E-03
             309            1281     56.4108E-03     55.6623E-03
             310             158     36.4874E-03     37.9993E-03
             310             159     35.7382E-03     36.5011E-03
             310            1281     56.4108E-03     55.6623E-03
             310            1282     57.0057E-03     58.2698E-03
             311             159     35.7382E-03     36.5011E-03
             311             160     37.8056E-03     37.4423E-03
             311            1282     57.0057E-03     58.2698E-03
             311            1283     59.1044E-03     59.5766E-03
             312             160     37.8056E-03     37.4423E-03
             312             161     37.5971E-03     34.8430E-03
             312            1283     59.1044E-03     59.5766E-03
             312            1284     58.2331E-03     55.5598E-03
             313               7     38.1984E-03     37.5362E-03
             313             161     37.5971E-03     34.8430E-03
             313             162     54.5353E-03     59.7553E-03
             313            1284     58.2331E-03     55.5598E-03
             314             104     54.9877E-03     56.7280E-03
             314             105     86.8287E-03     93.2633E-03
             314            1279     54.2408E-03     54.7126E-03
             314            1285     89.2720E-03     90.6478E-03
             315            1279     54.2408E-03     54.7126E-03
             315            1280     49.3707E-03     54.1625E-03
             315            1285     89.2720E-03     90.6478E-03
             315            1286     84.4902E-03     92.6693E-03
             316            1280     49.3707E-03     54.1625E-03
             316            1281     56.4108E-03     55.6623E-03
             316            1286     84.4902E-03     92.6693E-03
             316            1287     96.2915E-03     91.8984E-03
             317            1281     56.4108E-03     55.6623E-03
             317            1282     57.0057E-03     58.2698E-03
             317            1287     96.2915E-03     91.8984E-03
             317            1288     100.346E-03     101.193E-03
             318            1282     57.0057E-03     58.2698E-03
             318            1283     59.1044E-03     59.5766E-03
             318            1288     100.346E-03     101.193E-03
             318            1289     103.594E-03     103.019E-03
             319            1283     59.1044E-03     59.5766E-03
             319            1284     58.2331E-03     55.5598E-03
             319            1289     103.594E-03     103.019E-03
             319            1290     101.010E-03     96.5812E-03
             320             162     54.5353E-03     59.7553E-03
             320             163     88.1850E-03     103.609E-03
             320            1284     58.2331E-03     55.5598E-03
             320            1290     101.010E-03     96.5812E-03
             321             105     86.8287E-03     93.2633E-03
             321             106     118.340E-03     131.675E-03
             321            1285     89.2720E-03     90.6478E-03
             321            1291     122.174E-03     123.976E-03
             322            1285     89.2720E-03     90.6478E-03
             322            1286     84.4902E-03     92.6693E-03
             322            1291     122.174E-03     123.976E-03
             322            1292     116.927E-03     130.934E-03
             323            1286     84.4902E-03     92.6693E-03
             323            1287     96.2915E-03     91.8984E-03
             323            1292     116.927E-03     130.934E-03
             323            1293     133.729E-03     127.290E-03
             324            1287     96.2915E-03     91.8984E-03
             324            1288     100.346E-03     101.193E-03
             324            1293     133.729E-03     127.290E-03
             324            1294     139.231E-03     137.544E-03
             325            1288     100.346E-03     101.193E-03
             325            1289     103.594E-03     103.019E-03
             325            1294     139.231E-03     137.544E-03
             325            1295     143.873E-03     138.794E-03
             326            1289     103.594E-03     103.019E-03
             326            1290     101.010E-03     96.5812E-03
             326            1295     143.873E-03     138.794E-03
             326            1296     141.432E-03     133.811E-03
             327             163     88.1850E-03     103.609E-03
             327             164     121.008E-03     149.445E-03
             327            1290     101.010E-03     96.5812E-03
             327            1296     141.432E-03     133.811E-03
             328             106     118.340E-03     131.675E-03
             328             107     144.032E-03     164.326E-03
             328            1291     122.174E-03     123.976E-03
             328            1297     147.990E-03     150.224E-03
             329            1291     122.174E-03     123.976E-03
             329            1292     116.927E-03     130.934E-03
             329            1297     147.990E-03     150.224E-03
             329            1298     142.948E-03     163.580E-03
             330            1292     116.927E-03     130.934E-03
             330            1293     133.729E-03     127.290E-03
             330            1298     142.948E-03     163.580E-03
             330            1299     164.072E-03     157.757E-03
             331            1293     133.729E-03     127.290E-03
             331            1294     139.231E-03     137.544E-03
             331            1299     164.072E-03     157.757E-03
             331            1300     164.335E-03     165.942E-03
             332            1294     139.231E-03     137.544E-03
             332            1295     143.873E-03     138.794E-03
             332            1300     164.335E-03     165.942E-03
             332            1301     169.972E-03     167.470E-03
             333            1295     143.873E-03     138.794E-03
             333            1296     141.432E-03     133.811E-03
             333            1301     169.972E-03     167.470E-03
             333            1302     172.851E-03     166.227E-03
             334             164     121.008E-03     149.445E-03
             334             165     147.118E-03     191.118E-03
             334            1296     141.432E-03     133.811E-03
             334            1302     172.851E-03     166.227E-03
             335             107     144.032E-03     164.326E-03
             335             108     165.043E-03     182.221E-03
             335            1297     147.990E-03     150.224E-03
             335            1303     164.010E-03     166.747E-03
             336            1297     147.990E-03     150.224E-03
             336            1298     142.948E-03     163.580E-03
             336            1303     164.010E-03     166.747E-03
             336            1304     163.329E-03     181.377E-03
             337            1298     142.948E-03     163.580E-03
             337            1299     164.072E-03     157.757E-03
             337            1304     163.329E-03     181.377E-03
             337            1305     182.385E-03     174.356E-03
             338            1299     164.072E-03     157.757E-03
             338            1300     164.335E-03     165.942E-03
             338            1305     182.385E-03     174.356E-03
             338            1306     179.312E-03     181.441E-03
             339            1300     164.335E-03     165.942E-03
             339            1301     169.972E-03     167.470E-03
             339            1306     179.312E-03     181.441E-03
             339            1307     186.573E-03     185.283E-03
             340            1301     169.972E-03     167.470E-03
             340            1302     172.851E-03     166.227E-03
             340            1307     186.573E-03     185.283E-03
             340            1308     196.068E-03     189.423E-03
             341             165     147.118E-03     191.118E-03
             341             166     177.450E-03     216.737E-03
             341            1302     172.851E-03     166.227E-03
             341            1308     196.068E-03     189.423E-03
             342               6     173.222E-03     180.235E-03
             342             108     165.043E-03     182.221E-03
             342             172     169.166E-03     171.248E-03
             342            1303     164.010E-03     166.747E-03
             343             171     172.544E-03     181.238E-03
             343             172     169.166E-03     171.248E-03
             343            1303     164.010E-03     166.747E-03
             343            1304     163.329E-03     181.377E-03
             344             170     183.500E-03     177.623E-03
             344             171     172.544E-03     181.238E-03
             344            1304     163.329E-03     181.377E-03
             344            1305     182.385E-03     174.356E-03
             345             169     185.542E-03     185.730E-03
             345             170     183.500E-03     177.623E-03
             345            1305     182.385E-03     174.356E-03
             345            1306     179.312E-03     181.441E-03
             346             168     192.189E-03     190.376E-03
             346             169     185.542E-03     185.730E-03
             346            1306     179.312E-03     181.441E-03
             346            1307     186.573E-03     185.283E-03
             347             167     199.490E-03     195.570E-03
             347             168     192.189E-03     190.376E-03
             347            1307     186.573E-03     185.283E-03
             347            1308     196.068E-03     189.423E-03
             348               8     194.601E-03     213.578E-03
             348             166     177.450E-03     216.737E-03
             348             167     199.490E-03     195.570E-03
             348            1308     196.068E-03     189.423E-03
             349               7     38.1984E-03     37.5362E-03
             349             162     54.5353E-03     59.7553E-03
             349             173     46.8436E-03     43.9759E-03
             349            1309     65.1241E-03     62.5018E-03
             350             173     46.8436E-03     43.9759E-03
             350             174     46.9926E-03     46.9472E-03
             350            1309     65.1241E-03     62.5018E-03
             350            1310     66.5135E-03     65.4184E-03
             351             174     46.9926E-03     46.9472E-03
             351             175     45.2512E-03     47.0277E-03
             351            1310     66.5135E-03     65.4184E-03
             351            1311     61.7595E-03     66.7093E-03
             352             175     45.2512E-03     47.0277E-03
             352             176     46.7477E-03     45.9161E-03
             352            1311     61.7595E-03     66.7093E-03
             352            1312     64.1853E-03     61.9843E-03
             353             176     46.7477E-03     45.9161E-03
             353             177     45.8816E-03     47.7698E-03
             353            1312     64.1853E-03     61.9843E-03
             353            1313     61.3553E-03     61.2272E-03
             354             177     45.8816E-03     47.7698E-03
             354             178     39.4505E-03     41.9388E-03
             354            1313     61.3553E-03     61.2272E-03
             354            1314     53.3103E-03     56.8295E-03
             355               9     38.9445E-03     38.3878E-03
             355             178     39.4505E-03     41.9388E-03
             355             179     52.9100E-03     54.7428E-03
             355            1314     53.3103E-03     56.8295E-03
             356             162     54.5353E-03     59.7553E-03
             356             163     88.1850E-03     103.609E-03
             356            1309     65.1241E-03     62.5018E-03
             356            1315     104.751E-03     100.790E-03
             357            1309     65.1241E-03     62.5018E-03
             357            1310     66.5135E-03     65.4184E-03
             357            1315     104.751E-03     100.790E-03
             357            1316     108.462E-03     102.491E-03
             358            1310     66.5135E-03     65.4184E-03
             358            1311     61.7595E-03     66.7093E-03
             358            1316     108.462E-03     102.491E-03
             358            1317     96.9146E-03     105.934E-03
             359            1311     61.7595E-03     66.7093E-03
             359            1312     64.1853E-03     61.9843E-03
             359            1317     96.9146E-03     105.934E-03
             359            1318     101.252E-03     96.2002E-03
             360            1312     64.1853E-03     61.9843E-03
             360            1313     61.3553E-03     61.2272E-03
             360            1318     101.252E-03     96.2002E-03
             360            1319     94.2072E-03     91.3193E-03
             361            1313     61.3553E-03     61.2272E-03
             361            1314     53.3103E-03     56.8295E-03
             361            1319     94.2072E-03     91.3193E-03
             361            1320     82.4344E-03     88.5770E-03
             362             179     52.9100E-03     54.7428E-03
             362             180     82.6900E-03     90.0935E-03
             362            1314     53.3103E-03     56.8295E-03
             362            1320     82.4344E-03     88.5770E-03
             363             163     88.1850E-03     103.609E-03
             363             164     121.008E-03     149.445E-03
             363            1315     104.751E-03     100.790E-03
             363            1321     144.162E-03     138.069E-03
             364            1315     104.751E-03     100.790E-03
             364            1316     108.462E-03     102.491E-03
             364            1321     144.162E-03     138.069E-03
             364            1322     147.638E-03     134.150E-03
             365            1316     108.462E-03     102.491E-03
             365            1317     96.9146E-03     105.934E-03
             365            1322     147.638E-03     134.150E-03
             365            1323     127.780E-03     140.535E-03
             366            1317     96.9146E-03     105.934E-03
             366            1318     101.252E-03     96.2002E-03
             366            1323     127.780E-03     140.535E-03
             366            1324     136.860E-03     127.508E-03
             367            1318     101.252E-03     96.2002E-03
             367            1319     94.2072E-03     91.3193E-03
             367            1324     136.860E-03     127.508E-03
             367            1325     128.105E-03     124.313E-03
             368            1319     94.2072E-03     91.3193E-03
             368            1320     82.4344E-03     88.5770E-03
             368            1325     128.105E-03     124.313E-03
             368            1326     111.219E-03     123.057E-03
             369             180     82.6900E-03     90.0935E-03
             369             181     112.482E-03     127.838E-03
             369            1320     82.4344E-03     88.5770E-03
             369            1326     111.219E-03     123.057E-03
             370             164     121.008E-03     149.445E-03
             370             165     147.118E-03     191.118E-03
             370            1321     144.162E-03     138.069E-03
             370            1327     175.190E-03     172.521E-03
             371            1321     144.162E-03     138.069E-03
             371            1322     147.638E-03     134.150E-03
             371            1327     175.190E-03     172.521E-03
             371            1328     175.293E-03     162.194E-03
             372            1322     147.638E-03     134.150E-03
             372            1323     127.780E-03     140.535E-03
             372            1328     175.293E-03     162.194E-03
             372            1329     146.956E-03     167.947E-03
             373            1323     127.780E-03     140.535E-03
             373            1324     136.860E-03     127.508E-03
             373            1329     146.956E-03     167.947E-03
             373            1330     162.020E-03     152.711E-03
             374            1324     136.860E-03     127.508E-03
             374            1325     128.105E-03     124.313E-03
             374            1330     162.020E-03     152.711E-03
             374            1331     156.046E-03     154.235E-03
             375            1325     128.105E-03     124.313E-03
             375            1326     111.219E-03     123.057E-03
             375            1331     156.046E-03     154.235E-03
             375            1332     135.661E-03     152.908E-03
             376             181     112.482E-03     127.838E-03
             376             182     136.263E-03     158.996E-03
             376            1326     111.219E-03     123.057E-03
             376            1332     135.661E-03     152.908E-03
             377             165     147.118E-03     191.118E-03
             377             166     177.450E-03     216.737E-03
             377            1327     175.190E-03     172.521E-03
             377            1333     199.691E-03     197.100E-03
             378            1327     175.190E-03     172.521E-03
             378            1328     175.293E-03     162.194E-03
             378            1333     199.691E-03     197.100E-03
             378            1334     193.137E-03     182.210E-03
             379            1328     175.293E-03     162.194E-03
             379            1329     146.956E-03     167.947E-03
             379            1334     193.137E-03     182.210E-03
             379            1335     165.081E-03     183.358E-03
             380            1329     146.956E-03     167.947E-03
             380            1330     162.020E-03     152.711E-03
             380            1335     165.081E-03     183.358E-03
             380            1336     175.833E-03     166.843E-03
             381            1330     162.020E-03     152.711E-03
             381            1331     156.046E-03     154.235E-03
             381            1336     175.833E-03     166.843E-03
             381            1337     170.932E-03     167.473E-03
             382            1331     156.046E-03     154.235E-03
             382            1332     135.661E-03     152.908E-03
             382            1337     170.932E-03     167.473E-03
             382            1338     153.361E-03     166.621E-03
             383             182     136.263E-03     158.996E-03
             383             183     157.866E-03     177.689E-03
             383            1332     135.661E-03     152.908E-03
             383            1338     153.361E-03     166.621E-03
             384               8     194.601E-03     213.578E-03
             384             166     177.450E-03     216.737E-03
             384             189     203.016E-03     200.819E-03
             384            1333     199.691E-03     197.100E-03
             385             188     195.408E-03     189.024E-03
             385             189     203.016E-03     200.819E-03
             385            1333     199.691E-03     197.100E-03
             385            1334     193.137E-03     182.210E-03
             386             187     179.895E-03     187.268E-03
             386             188     195.408E-03     189.024E-03
             386            1334     193.137E-03     182.210E-03
             386            1335     165.081E-03     183.358E-03
             387             186     178.779E-03     173.159E-03
             387             187     179.895E-03     187.268E-03
             387            1335     165.081E-03     183.358E-03
             387            1336     175.833E-03     166.843E-03
             388             185     170.836E-03     166.704E-03
             388             186     178.779E-03     173.159E-03
             388            1336     175.833E-03     166.843E-03
             388            1337     170.932E-03     167.473E-03
             389             184     159.742E-03     164.306E-03
             389             185     170.836E-03     166.704E-03
             389            1337     170.932E-03     167.473E-03
             389            1338     153.361E-03     166.621E-03
             390              10     166.621E-03     176.977E-03
             390             183     157.866E-03     177.689E-03
             390             184     159.742E-03     164.306E-03
             390            1338     153.361E-03     166.621E-03
             391              11     1.24858E-03     1.22942E-03
             391             190     1.25844E-03     1.23630E-03
             391             211     1.19163E-03     1.17322E-03
             391            1339     1.20090E-03     1.18065E-03
             392             190     1.25844E-03     1.23630E-03
             392             191     1.26308E-03     1.24706E-03
             392            1339     1.20090E-03     1.18065E-03
             392            1340     1.20933E-03     1.19356E-03
             393             191     1.26308E-03     1.24706E-03
             393             192     1.25977E-03     1.24672E-03
             393            1340     1.20933E-03     1.19356E-03
             393            1341     1.21034E-03     1.19353E-03
             394             192     1.25977E-03     1.24672E-03
             394             193     1.25270E-03     1.24822E-03
             394            1341     1.21034E-03     1.19353E-03
             394            1342     1.21194E-03     1.21253E-03
             395             193     1.25270E-03     1.24822E-03
             395             194     1.26512E-03     1.25198E-03
             395            1342     1.21194E-03     1.21253E-03
             395            1343     1.24458E-03     1.22913E-03
             396             194     1.26512E-03     1.25198E-03
             396             195     1.26273E-03     1.22606E-03
             396            1343     1.24458E-03     1.22913E-03
             396            1344     1.24506E-03     1.21331E-03
             397              12     24.5742E-03     24.3784E-03
             397             195     1.26273E-03     1.22606E-03
             397             196     23.6807E-03     23.4852E-03
             397            1344     1.24506E-03     1.21331E-03
             398             210     1.02516E-03     1.01091E-03
             398             211     1.19163E-03     1.17322E-03
             398            1339     1.20090E-03     1.18065E-03
             398            1345     1.03362E-03     1.01919E-03
             399            1339     1.20090E-03     1.18065E-03
             399            1340     1.20933E-03     1.19356E-03
             399            1345     1.03362E-03     1.01919E-03
             399            1346     1.04501E-03     1.03565E-03
             400            1340     1.20933E-03     1.19356E-03
             400            1341     1.21034E-03     1.19353E-03
             400            1346     1.04501E-03     1.03565E-03
             400            1347     1.06423E-03     1.05730E-03
             401            1341     1.21034E-03     1.19353E-03
             401            1342     1.21194E-03     1.21253E-03
             401            1347     1.06423E-03     1.05730E-03
             401            1348     1.09121E-03     1.11103E-03
             402            1342     1.21194E-03     1.21253E-03
             402            1343     1.24458E-03     1.22913E-03
             402            1348     1.09121E-03     1.11103E-03
             402            1349     1.19025E-03     1.14196E-03
             403            1343     1.24458E-03     1.22913E-03
             403            1344     1.24506E-03     1.21331E-03
             403            1349     1.19025E-03     1.14196E-03
             403            1350     1.21157E-03     1.17673E-03
             404             196     23.6807E-03     23.4852E-03
             404             197     21.3397E-03     21.2225E-03
             404            1344     1.24506E-03     1.21331E-03
             404            1350     1.21157E-03     1.17673E-03
             405             209     745.703E-06     755.611E-06
             405             210     1.02516E-03     1.01091E-03
             405            1345     1.03362E-03     1.01919E-03
             405            1351     750.161E-06     768.366E-06
             406            1345     1.03362E-03     1.01919E-03
             406            1346     1.04501E-03     1.03565E-03
             406            1351     750.161E-06     768.366E-06
             406            1352     786.730E-06     797.125E-06
             407            1346     1.04501E-03     1.03565E-03
             407            1347     1.06423E-03     1.05730E-03
             407            1352     786.730E-06     797.125E-06
             407            1353     848.675E-06     840.534E-06
             408            1347     1.06423E-03     1.05730E-03
             408            1348     1.09121E-03     1.11103E-03
             408            1353     848.675E-06     840.534E-06
             408            1354     910.024E-06     956.668E-06
             409            1348     1.09121E-03     1.11103E-03
             409            1349     1.19025E-03     1.14196E-03
             409            1354     910.024E-06     956.668E-06
             409            1355     1.10499E-03     1.00747E-03
             410            1349     1.19025E-03     1.14196E-03
             410            1350     1.21157E-03     1.17673E-03
             410            1355     1.10499E-03     1.00747E-03
             410            1356     1.15928E-03     1.12701E-03
             411             197     21.3397E-03     21.2225E-03
             411             198     17.4021E-03     17.3857E-03
             411            1350     1.21157E-03     1.17673E-03
             411            1356     1.15928E-03     1.12701E-03
             412             208     415.520E-06     483.704E-06
             412             209     745.703E-06     755.611E-06
             412            1351     750.161E-06     768.366E-06
             412            1357     428.578E-06     468.565E-06
             413            1351     750.161E-06     768.366E-06
             413            1352     786.730E-06     797.125E-06
             413            1357     428.578E-06     468.565E-06
             413            1358     481.522E-06     463.262E-06
             414            1352     786.730E-06     797.125E-06
             414            1353     848.675E-06     840.534E-06
             414            1358     481.522E-06     463.262E-06
             414            1359     594.298E-06     551.601E-06
             415            1353     848.675E-06     840.534E-06
             415            1354     910.024E-06     956.668E-06
             415            1359     594.298E-06     551.601E-06
             415            1360     725.044E-06     819.612E-06
             416            1354     910.024E-06     956.668E-06
             416            1355     1.10499E-03     1.00747E-03
             416            1360     725.044E-06     819.612E-06
             416            1361     1.06726E-03     963.708E-06
             417            1355     1.10499E-03     1.00747E-03
             417            1356     1.15928E-03     1.12701E-03
             417            1361     1.06726E-03     963.708E-06
             417            1362     1.17267E-03     1.16877E-03
             418             198     17.4021E-03     17.3857E-03
             418             199     12.4284E-03     12.4675E-03
             418            1356     1.15928E-03     1.12701E-03
             418            1362     1.17267E-03     1.16877E-03
             419             207     367.715E-06     524.067E-06
             419             208     415.520E-06     483.704E-06
             419            1357     428.578E-06     468.565E-06
             419            1363     366.886E-06     431.338E-06
             420            1357     428.578E-06     468.565E-06
             420            1358     481.522E-06     463.262E-06
             420            1363     366.886E-06     431.338E-06
             420            1364     387.325E-06     357.941E-06
             421            1358     481.522E-06     463.262E-06
             421            1359     594.298E-06     551.601E-06
             421            1364     387.325E-06     357.941E-06
             421            1365     543.870E-06     499.606E-06
             422            1359     594.298E-06     551.601E-06
             422            1360     725.044E-06     819.612E-06
             422            1365     543.870E-06     499.606E-06
             422            1366     750.463E-06     855.553E-06
             423            1360     725.044E-06     819.612E-06
             423            1361     1.06726E-03     963.708E-06
             423            1366     750.463E-06     855.553E-06
             423            1367     1.18999E-03     1.10962E-03
             424            1361     1.06726E-03     963.708E-06
             424            1362     1.17267E-03     1.16877E-03
             424            1367     1.18999E-03     1.10962E-03
             424            1368     1.43961E-03     1.44017E-03
             425             199     12.4284E-03     12.4675E-03
             425             200     7.61204E-03     9.76557E-03
             425            1362     1.17267E-03     1.16877E-03
             425            1368     1.43961E-03     1.44017E-03
             426              14     387.561E-06     595.394E-06
             426             206     344.888E-06     439.307E-06
             426             207     367.715E-06     524.067E-06
             426            1363     366.886E-06     431.338E-06
             427             205     362.567E-06     348.872E-06
             427             206     344.888E-06     439.307E-06
             427            1363     366.886E-06     431.338E-06
             427            1364     387.325E-06     357.941E-06
             428             204     565.285E-06     538.913E-06
             428             205     362.567E-06     348.872E-06
             428            1364     387.325E-06     357.941E-06
             428            1365     543.870E-06     499.606E-06
             429             203     804.386E-06     858.428E-06
             429             204     565.285E-06     538.913E-06
             429            1365     543.870E-06     499.606E-06
             429            1366     750.463E-06     855.553E-06
             430             202     1.17882E-03     1.13595E-03
             430             203     804.386E-06     858.428E-06
             430            1366     750.463E-06     855.553E-06
             430            1367     1.18999E-03     1.10962E-03
             431             201     1.49944E-03     1.52629E-03
             431             202     1.17882E-03     1.13595E-03
             431            1367     1.18999E-03     1.10962E-03
             431            1368     1.43961E-03     1.44017E-03
             432              13     4.95143E-03     8.73621E-03
             432             200     7.61204E-03     9.76557E-03
             432             201     1.49944E-03     1.52629E-03
             432            1368     1.43961E-03     1.44017E-03
             433               9     38.9445E-03     38.3878E-03
             433             179     52.9100E-03     54.7428E-03
             433             212     47.3212E-03     45.5250E-03
             433            1369     62.0631E-03     59.2618E-03
             434             212     47.3212E-03     45.5250E-03
             434             213     47.2561E-03     48.7116E-03
             434            1369     62.0631E-03     59.2618E-03
             434            1370     63.4542E-03     62.3543E-03
             435             213     47.2561E-03     48.7116E-03
             435             214     45.5294E-03     48.6139E-03
             435            1370     63.4542E-03     62.3543E-03
             435            1371     59.7701E-03     62.9095E-03
             436             214     45.5294E-03     48.6139E-03
             436             215     47.0811E-03     48.0149E-03
             436            1371     59.7701E-03     62.9095E-03
             436            1372     60.6955E-03     60.4612E-03
             437             215     47.0811E-03     48.0149E-03
             437             216     47.4138E-03     47.5043E-03
             437            1372     60.6955E-03     60.4612E-03
             437            1373     59.6970E-03     59.6683E-03
             438             216     47.4138E-03     47.5043E-03
             438             217     47.5529E-03     46.4866E-03
             438            1373     59.6970E-03     59.6683E-03
             438            1374     58.1078E-03     57.7600E-03
             439             217     47.5529E-03     46.4866E-03
             439             218     47.7994E-03     45.6936E-03
             439            1374     58.1078E-03     57.7600E-03
             439            1375     56.5719E-03     56.2592E-03
             440             218     47.7994E-03     45.6936E-03
             440             219     47.1925E-03     44.6595E-03
             440            1375     56.5719E-03     56.2592E-03
             440            1376     55.5493E-03     53.2632E-03
             441             219     47.1925E-03     44.6595E-03
             441             220     46.1032E-03     45.7053E-03
             441            1376     55.5493E-03     53.2632E-03
             441            1377     53.0192E-03     52.0475E-03
             442             220     46.1032E-03     45.7053E-03
             442             221     45.6877E-03     45.6906E-03
             442            1377     53.0192E-03     52.0475E-03
             442            1378     51.2291E-03     53.5312E-03
             443             221     45.6877E-03     45.6906E-03
             443             222     47.5883E-03     46.0769E-03
             443            1378     51.2291E-03     53.5312E-03
             443            1379     56.0718E-03     53.8728E-03
             444             222     47.5883E-03     46.0769E-03
             444             223     47.3981E-03     48.5025E-03
             444            1379     56.0718E-03     53.8728E-03
             444            1380     56.7264E-03     55.9837E-03
             445             223     47.3981E-03     48.5025E-03
             445             224     46.0629E-03     48.2340E-03
             445            1380     56.7264E-03     55.9837E-03
             445            1381     53.6867E-03     55.8647E-03
             446             224     46.0629E-03     48.2340E-03
             446             225     47.1093E-03     47.6704E-03
             446            1381     53.6867E-03     55.8647E-03
             446            1382     54.0251E-03     53.7654E-03
             447             225     47.1093E-03     47.6704E-03
             447             226     47.3237E-03     47.2573E-03
             447            1382     54.0251E-03     53.7654E-03
             447            1383     52.9667E-03     52.9802E-03
             448             226     47.3237E-03     47.2573E-03
             448             227     47.4424E-03     46.5478E-03
             448            1383     52.9667E-03     52.9802E-03
             448            1384     51.6521E-03     51.4616E-03
             449             227     47.4424E-03     46.5478E-03
             449             228     47.6846E-03     46.0948E-03
             449            1384     51.6521E-03     51.4616E-03
             449            1385     50.6294E-03     50.1017E-03
             450             228     47.6846E-03     46.0948E-03
             450             229     47.3066E-03     45.5584E-03
             450            1385     50.6294E-03     50.1017E-03
             450            1386     49.6004E-03     48.2447E-03
             451             229     47.3066E-03     45.5584E-03
             451             230     46.6556E-03     46.1828E-03
             451            1386     49.6004E-03     48.2447E-03
             451            1387     48.1224E-03     47.5023E-03
             452             230     46.6556E-03     46.1828E-03
             452             231     47.0859E-03     46.6160E-03
             452            1387     48.1224E-03     47.5023E-03
             452            1388     48.1348E-03     48.9089E-03
             453             231     47.0859E-03     46.6160E-03
             453             232     48.8774E-03     47.5712E-03
             453            1388     48.1348E-03     48.9089E-03
             453            1389     51.6444E-03     50.0230E-03
             454             232     48.8774E-03     47.5712E-03
             454             233     48.6623E-03     49.2130E-03
             454            1389     51.6444E-03     50.0230E-03
             454            1390     51.7331E-03     51.1638E-03
             455             233     48.6623E-03     49.2130E-03
             455             234     47.6568E-03     48.9347E-03
             455            1390     51.7331E-03     51.1638E-03
             455            1391     49.5249E-03     50.6134E-03
             456             234     47.6568E-03     48.9347E-03
             456             235     48.1561E-03     48.4884E-03
             456            1391     49.5249E-03     50.6134E-03
             456            1392     49.4327E-03     49.1664E-03
             457             235     48.1561E-03     48.4884E-03
             457             236     48.1231E-03     48.2452E-03
             457            1392     49.4327E-03     49.1664E-03
             457            1393     48.5919E-03     48.6759E-03
             458             236     48.1231E-03     48.2452E-03
             458             237     48.1699E-03     47.7604E-03
             458            1393     48.5919E-03     48.6759E-03
             458            1394     47.7859E-03     47.8293E-03
             459             237     48.1699E-03     47.7604E-03
             459             238     48.2876E-03     47.4569E-03
             459            1394     47.7859E-03     47.8293E-03
             459            1395     47.2873E-03     47.0010E-03
             460             238     48.2876E-03     47.4569E-03
             460             239     48.2800E-03     47.4093E-03
             460            1395     47.2873E-03     47.0010E-03
             460            1396     46.7855E-03     46.3459E-03
             461             239     48.2800E-03     47.4093E-03
             461             240     48.2952E-03     47.2971E-03
             461            1396     46.7855E-03     46.3459E-03
             461            1397     46.4921E-03     45.8315E-03
             462             240     48.2952E-03     47.2971E-03
             462             241     48.0577E-03     47.2465E-03
             462            1397     46.4921E-03     45.8315E-03
             462            1398     46.0497E-03     45.4745E-03
             463             241     48.0577E-03     47.2465E-03
             463             242     47.7827E-03     47.1895E-03
             463            1398     46.0497E-03     45.4745E-03
             463            1399     45.9222E-03     45.5487E-03
             464             242     47.7827E-03     47.1895E-03
             464             243     48.2579E-03     47.5962E-03
             464            1399     45.9222E-03     45.5487E-03
             464            1400     46.6913E-03     46.1724E-03
             465             243     48.2579E-03     47.5962E-03
             465             244     48.4263E-03     48.0933E-03
             465            1400     46.6913E-03     46.1724E-03
             465            1401     46.9620E-03     46.6459E-03
             466             244     48.4263E-03     48.0933E-03
             466             245     48.0317E-03     47.8124E-03
             466            1401     46.9620E-03     46.6459E-03
             466            1402     46.4013E-03     46.2187E-03
             467              12     24.5742E-03     24.3784E-03
             467             245     48.0317E-03     47.8124E-03
             467             246     23.6807E-03     23.4852E-03
             467            1402     46.4013E-03     46.2187E-03
             468             179     52.9100E-03     54.7428E-03
             468             180     82.6900E-03     90.0935E-03
             468            1369     62.0631E-03     59.2618E-03
             468            1403     95.6154E-03     91.1827E-03
             469            1369     62.0631E-03     59.2618E-03
             469            1370     63.4542E-03     62.3543E-03
             469            1403     95.6154E-03     91.1827E-03
             469            1404     98.4007E-03     91.8578E-03
             470            1370     63.4542E-03     62.3543E-03
             470            1371     59.7701E-03     62.9095E-03
             470            1404     98.4007E-03     91.8578E-03
             470            1405     88.6573E-03     91.9125E-03
             471            1371     59.7701E-03     62.9095E-03
             471            1372     60.6955E-03     60.4612E-03
             471            1405     88.6573E-03     91.9125E-03
             471            1406     87.9667E-03     85.5396E-03
             472            1372     60.6955E-03     60.4612E-03
             472            1373     59.6970E-03     59.6683E-03
             472            1406     87.9667E-03     85.5396E-03
             472            1407     84.6756E-03     83.7188E-03
             473            1373     59.6970E-03     59.6683E-03
             473            1374     58.1078E-03     57.7600E-03
             473            1407     84.6756E-03     83.7188E-03
             473            1408     80.9019E-03     80.6775E-03
             474            1374     58.1078E-03     57.7600E-03
             474            1375     56.5719E-03     56.2592E-03
             474            1408     80.9019E-03     80.6775E-03
             474            1409     76.8069E-03     79.3357E-03
             475            1375     56.5719E-03     56.2592E-03
             475            1376     55.5493E-03     53.2632E-03
             475            1409     76.8069E-03     79.3357E-03
             475            1410     76.4198E-03     74.3046E-03
             476            1376     55.5493E-03     53.2632E-03
             476            1377     53.0192E-03     52.0475E-03
             476            1410     76.4198E-03     74.3046E-03
             476            1411     71.1237E-03     69.7835E-03
             477            1377     53.0192E-03     52.0475E-03
             477            1378     51.2291E-03     53.5312E-03
             477            1411     71.1237E-03     69.7835E-03
             477            1412     65.5862E-03     74.0425E-03
             478            1378     51.2291E-03     53.5312E-03
             478            1379     56.0718E-03     53.8728E-03
             478            1412     65.5862E-03     74.0425E-03
             478            1413     76.7281E-03     73.2801E-03
             479            1379     56.0718E-03     53.8728E-03
             479            1380     56.7264E-03     55.9837E-03
             479            1413     76.7281E-03     73.2801E-03
             479            1414     77.9664E-03     72.9619E-03
             480            1380     56.7264E-03     55.9837E-03
             480            1381     53.6867E-03     55.8647E-03
             480            1414     77.9664E-03     72.9619E-03
             480            1415     69.8462E-03     72.0888E-03
             481            1381     53.6867E-03     55.8647E-03
             481            1382     54.0251E-03     53.7654E-03
             481            1415     69.8462E-03     72.0888E-03
             481            1416     68.5622E-03     66.7433E-03
             482            1382     54.0251E-03     53.7654E-03
             482            1383     52.9667E-03     52.9802E-03
             482            1416     68.5622E-03     66.7433E-03
             482            1417     65.2963E-03     64.8149E-03
             483            1383     52.9667E-03     52.9802E-03
             483            1384     51.6521E-03     51.4616E-03
             483            1417     65.2963E-03     64.8149E-03
             483            1418     61.7932E-03     62.0850E-03
             484            1384     51.6521E-03     51.4616E-03
             484            1385     50.6294E-03     50.1017E-03
             484            1418     61.7932E-03     62.0850E-03
             484            1419     58.4986E-03     59.9825E-03
             485            1385     50.6294E-03     50.1017E-03
             485            1386     49.6004E-03     48.2447E-03
             485            1419     58.4986E-03     59.9825E-03
             485            1420     56.6921E-03     56.2419E-03
             486            1386     49.6004E-03     48.2447E-03
             486            1387     48.1224E-03     47.5023E-03
             486            1420     56.6921E-03     56.2419E-03
             486            1421     53.2471E-03     52.8387E-03
             487            1387     48.1224E-03     47.5023E-03
             487            1388     48.1348E-03     48.9089E-03
             487            1421     53.2471E-03     52.8387E-03
             487            1422     51.8617E-03     56.2811E-03
             488            1388     48.1348E-03     48.9089E-03
             488            1389     51.6444E-03     50.0230E-03
             488            1422     51.8617E-03     56.2811E-03
             488            1423     59.3866E-03     57.1072E-03
             489            1389     51.6444E-03     50.0230E-03
             489            1390     51.7331E-03     51.1638E-03
             489            1423     59.3866E-03     57.1072E-03
             489            1424     59.2450E-03     55.9163E-03
             490            1390     51.7331E-03     51.1638E-03
             490            1391     49.5249E-03     50.6134E-03
             490            1424     59.2450E-03     55.9163E-03
             490            1425     53.2994E-03     54.4577E-03
             491            1391     49.5249E-03     50.6134E-03
             491            1392     49.4327E-03     49.1664E-03
             491            1425     53.2994E-03     54.4577E-03
             491            1426     51.8573E-03     50.6476E-03
             492            1392     49.4327E-03     49.1664E-03
             492            1393     48.5919E-03     48.6759E-03
             492            1426     51.8573E-03     50.6476E-03
             492            1427     49.3085E-03     49.0708E-03
             493            1393     48.5919E-03     48.6759E-03
             493            1394     47.7859E-03     47.8293E-03
             493            1427     49.3085E-03     49.0708E-03
             493            1428     46.8213E-03     47.2144E-03
             494            1394     47.7859E-03     47.8293E-03
             494            1395     47.2873E-03     47.0010E-03
             494            1428     46.8213E-03     47.2144E-03
             494            1429     44.8997E-03     45.3983E-03
             495            1395     47.2873E-03     47.0010E-03
             495            1396     46.7855E-03     46.3459E-03
             495            1429     44.8997E-03     45.3983E-03
             495            1430     43.0790E-03     43.7848E-03
             496            1396     46.7855E-03     46.3459E-03
             496            1397     46.4921E-03     45.8315E-03
             496            1430     43.0790E-03     43.7848E-03
             496            1431     41.5710E-03     42.1650E-03
             497            1397     46.4921E-03     45.8315E-03
             497            1398     46.0497E-03     45.4745E-03
             497            1431     41.5710E-03     42.1650E-03
             497            1432     40.7220E-03     40.9123E-03
             498            1398     46.0497E-03     45.4745E-03
             498            1399     45.9222E-03     45.5487E-03
             498            1432     40.7220E-03     40.9123E-03
             498            1433     41.1963E-03     41.4640E-03
             499            1399     45.9222E-03     45.5487E-03
             499            1400     46.6913E-03     46.1724E-03
             499            1433     41.1963E-03     41.4640E-03
             499            1434     42.5911E-03     42.2359E-03
             500            1400     46.6913E-03     46.1724E-03
             500            1401     46.9620E-03     46.6459E-03
             500            1434     42.5911E-03     42.2359E-03
             500            1435     42.5817E-03     41.9942E-03
             501            1401     46.9620E-03     46.6459E-03
             501            1402     46.4013E-03     46.2187E-03
             501            1435     42.5817E-03     41.9942E-03
             501            1436     41.7058E-03     41.6175E-03
             502             246     23.6807E-03     23.4852E-03
             502             247     21.3397E-03     21.2225E-03
             502            1402     46.4013E-03     46.2187E-03
             502            1436     41.7058E-03     41.6175E-03
             503             180     82.6900E-03     90.0935E-03
             503             181     112.482E-03     127.838E-03
             503            1403     95.6154E-03     91.1827E-03
             503            1437     130.543E-03     126.161E-03
             504            1403     95.6154E-03     91.1827E-03
             504            1404     98.4007E-03     91.8578E-03
             504            1437     130.543E-03     126.161E-03
             504            1438     131.912E-03     121.042E-03
             505            1404     98.4007E-03     91.8578E-03
             505            1405     88.6573E-03     91.9125E-03
             505            1438     131.912E-03     121.042E-03
             505            1439     113.699E-03     120.365E-03
             506            1405     88.6573E-03     91.9125E-03
             506            1406     87.9667E-03     85.5396E-03
             506            1439     113.699E-03     120.365E-03
             506            1440     111.499E-03     109.356E-03
             507            1406     87.9667E-03     85.5396E-03
             507            1407     84.6756E-03     83.7188E-03
             507            1440     111.499E-03     109.356E-03
             507            1441     106.594E-03     106.400E-03
             508            1407     84.6756E-03     83.7188E-03
             508            1408     80.9019E-03     80.6775E-03
             508            1441     106.594E-03     106.400E-03
             508            1442     101.803E-03     101.762E-03
             509            1408     80.9019E-03     80.6775E-03
             509            1409     76.8069E-03     79.3357E-03
             509            1442     101.803E-03     101.762E-03
             509            1443     97.0386E-03     101.786E-03
             510            1409     76.8069E-03     79.3357E-03
             510            1410     76.4198E-03     74.3046E-03
             510            1443     97.0386E-03     101.786E-03
             510            1444     100.589E-03     97.0376E-03
             511            1410     76.4198E-03     74.3046E-03
             511            1411     71.1237E-03     69.7835E-03
             511            1444     100.589E-03     97.0376E-03
             511            1445     94.4703E-03     93.7766E-03
             512            1411     71.1237E-03     69.7835E-03
             512            1412     65.5862E-03     74.0425E-03
             512            1445     94.4703E-03     93.7766E-03
             512            1446     83.6324E-03     102.817E-03
             513            1412     65.5862E-03     74.0425E-03
             513            1413     76.7281E-03     73.2801E-03
             513            1446     83.6324E-03     102.817E-03
             513            1447     99.5210E-03     96.0670E-03
             514            1413     76.7281E-03     73.2801E-03
             514            1414     77.9664E-03     72.9619E-03
             514            1447     99.5210E-03     96.0670E-03
             514            1448     99.5048E-03     91.0446E-03
             515            1414     77.9664E-03     72.9619E-03
             515            1415     69.8462E-03     72.0888E-03
             515            1448     99.5048E-03     91.0446E-03
             515            1449     84.6168E-03     89.5723E-03
             516            1415     69.8462E-03     72.0888E-03
             516            1416     68.5622E-03     66.7433E-03
             516            1449     84.6168E-03     89.5723E-03
             516            1450     81.9112E-03     80.1620E-03
             517            1416     68.5622E-03     66.7433E-03
             517            1417     65.2963E-03     64.8149E-03
             517            1450     81.9112E-03     80.1620E-03
             517            1451     76.9099E-03     76.7965E-03
             518            1417     65.2963E-03     64.8149E-03
             518            1418     61.7932E-03     62.0850E-03
             518            1451     76.9099E-03     76.7965E-03
             518            1452     71.9769E-03     72.3471E-03
             519            1418     61.7932E-03     62.0850E-03
             519            1419     58.4986E-03     59.9825E-03
             519            1452     71.9769E-03     72.3471E-03
             519            1453     67.5687E-03     70.4073E-03
             520            1419     58.4986E-03     59.9825E-03
             520            1420     56.6921E-03     56.2419E-03
             520            1453     67.5687E-03     70.4073E-03
             520            1454     67.1915E-03     66.4371E-03
             521            1420     56.6921E-03     56.2419E-03
             521            1421     53.2471E-03     52.8387E-03
             521            1454     67.1915E-03     66.4371E-03
             521            1455     62.5110E-03     62.8286E-03
             522            1421     53.2471E-03     52.8387E-03
             522            1422     51.8617E-03     56.2811E-03
             522            1455     62.5110E-03     62.8286E-03
             522            1456     57.9463E-03     69.3106E-03
             523            1422     51.8617E-03     56.2811E-03
             523            1423     59.3866E-03     57.1072E-03
             523            1456     57.9463E-03     69.3106E-03
             523            1457     68.7855E-03     66.6234E-03
             524            1423     59.3866E-03     57.1072E-03
             524            1424     59.2450E-03     55.9163E-03
             524            1457     68.7855E-03     66.6234E-03
             524            1458     67.5538E-03     61.9990E-03
             525            1424     59.2450E-03     55.9163E-03
             525            1425     53.2994E-03     54.4577E-03
             525            1458     67.5538E-03     61.9990E-03
             525            1459     56.6253E-03     59.9782E-03
             526            1425     53.2994E-03     54.4577E-03
             526            1426     51.8573E-03     50.6476E-03
             526            1459     56.6253E-03     59.9782E-03
             526            1460     53.8154E-03     52.6267E-03
             527            1426     51.8573E-03     50.6476E-03
             527            1427     49.3085E-03     49.0708E-03
             527            1460     53.8154E-03     52.6267E-03
             527            1461     49.2544E-03     49.0896E-03
             528            1427     49.3085E-03     49.0708E-03
             528            1428     46.8213E-03     47.2144E-03
             528            1461     49.2544E-03     49.0896E-03
             528            1462     44.7873E-03     45.3383E-03
             529            1428     46.8213E-03     47.2144E-03
             529            1429     44.8997E-03     45.3983E-03
             529            1462     44.7873E-03     45.3383E-03
             529            1463     41.6358E-03     41.8970E-03
             530            1429     44.8997E-03     45.3983E-03
             530            1430     43.0790E-03     43.7848E-03
             530            1463     41.6358E-03     41.8970E-03
             530            1464     38.4048E-03     39.6286E-03
             531            1430     43.0790E-03     43.7848E-03
             531            1431     41.5710E-03     42.1650E-03
             531            1464     38.4048E-03     39.6286E-03
             531            1465     35.7547E-03     37.5558E-03
             532            1431     41.5710E-03     42.1650E-03
             532            1432     40.7220E-03     40.9123E-03
             532            1465     35.7547E-03     37.5558E-03
             532            1466     33.9493E-03     35.3697E-03
             533            1432     40.7220E-03     40.9123E-03
             533            1433     41.1963E-03     41.4640E-03
             533            1466     33.9493E-03     35.3697E-03
             533            1467     34.1674E-03     35.6967E-03
             534            1433     41.1963E-03     41.4640E-03
             534            1434     42.5911E-03     42.2359E-03
             534            1467     34.1674E-03     35.6967E-03
             534            1468     36.0856E-03     35.9329E-03
             535            1434     42.5911E-03     42.2359E-03
             535            1435     42.5817E-03     41.9942E-03
             535            1468     36.0856E-03     35.9329E-03
             535            1469     35.5717E-03     35.0990E-03
             536            1435     42.5817E-03     41.9942E-03
             536            1436     41.7058E-03     41.6175E-03
             536            1469     35.5717E-03     35.0990E-03
             536            1470     33.9243E-03     34.4732E-03
             537             247     21.3397E-03     21.2225E-03
             537             248     17.4021E-03     17.3857E-03
             537            1436     41.7058E-03     41.6175E-03
             537            1470     33.9243E-03     34.4732E-03
             538             181     112.482E-03     127.838E-03
             538             182     136.263E-03     158.996E-03
             538            1437     130.543E-03     126.161E-03
             538            1471     158.772E-03     157.314E-03
             539            1437     130.543E-03     126.161E-03
             539            1438     131.912E-03     121.042E-03
             539            1471     158.772E-03     157.314E-03
             539            1472     157.091E-03     148.173E-03
             540            1438     131.912E-03     121.042E-03
             540            1439     113.699E-03     120.365E-03
             540            1472     157.091E-03     148.173E-03
             540            1473     132.376E-03     146.134E-03
             541            1439     113.699E-03     120.365E-03
             541            1440     111.499E-03     109.356E-03
             541            1473     132.376E-03     146.134E-03
             541            1474     130.295E-03     131.450E-03
             542            1440     111.499E-03     109.356E-03
             542            1441     106.594E-03     106.400E-03
             542            1474     130.295E-03     131.450E-03
             542            1475     123.052E-03     127.864E-03
             543            1441     106.594E-03     106.400E-03
             543            1442     101.803E-03     101.762E-03
             543            1475     123.052E-03     127.864E-03
             543            1476     117.797E-03     120.438E-03
             544            1442     101.803E-03     101.762E-03
             544            1443     97.0386E-03     101.786E-03
             544            1476     117.797E-03     120.438E-03
             544            1477     111.438E-03     120.047E-03
             545            1443     97.0386E-03     101.786E-03
             545            1444     100.589E-03     97.0376E-03
             545            1477     111.438E-03     120.047E-03
             545            1478     118.239E-03     115.324E-03
             546            1444     100.589E-03     97.0376E-03
             546            1445     94.4703E-03     93.7766E-03
             546            1478     118.239E-03     115.324E-03
             546            1479     115.212E-03     115.125E-03
             547            1445     94.4703E-03     93.7766E-03
             547            1446     83.6324E-03     102.817E-03
             547            1479     115.212E-03     115.125E-03
             547            1480     100.399E-03     129.051E-03
             548            1446     83.6324E-03     102.817E-03
             548            1447     99.5210E-03     96.0670E-03
             548            1480     100.399E-03     129.051E-03
             548            1481     118.721E-03     117.606E-03
             549            1447     99.5210E-03     96.0670E-03
             549            1448     99.5048E-03     91.0446E-03
             549            1481     118.721E-03     117.606E-03
             549            1482     116.604E-03     109.496E-03
             550            1448     99.5048E-03     91.0446E-03
             550            1449     84.6168E-03     89.5723E-03
             550            1482     116.604E-03     109.496E-03
             550            1483     96.2887E-03     106.628E-03
             551            1449     84.6168E-03     89.5723E-03
             551            1450     81.9112E-03     80.1620E-03
             551            1483     96.2887E-03     106.628E-03
             551            1484     93.1955E-03     93.6333E-03
             552            1450     81.9112E-03     80.1620E-03
             552            1451     76.9099E-03     76.7965E-03
             552            1484     93.1955E-03     93.6333E-03
             552            1485     85.8413E-03     89.0417E-03
             553            1451     76.9099E-03     76.7965E-03
             553            1452     71.9769E-03     72.3471E-03
             553            1485     85.8413E-03     89.0417E-03
             553            1486     79.9235E-03     81.9211E-03
             554            1452     71.9769E-03     72.3471E-03
             554            1453     67.5687E-03     70.4073E-03
             554            1486     79.9235E-03     81.9211E-03
             554            1487     74.0653E-03     78.8784E-03
             555            1453     67.5687E-03     70.4073E-03
             555            1454     67.1915E-03     66.4371E-03
             555            1487     74.0653E-03     78.8784E-03
             555            1488     75.2890E-03     74.6103E-03
             556            1454     67.1915E-03     66.4371E-03
             556            1455     62.5110E-03     62.8286E-03
             556            1488     75.2890E-03     74.6103E-03
             556            1489     72.4671E-03     72.7901E-03
             557            1455     62.5110E-03     62.8286E-03
             557            1456     57.9463E-03     69.3106E-03
             557            1489     72.4671E-03     72.7901E-03
             557            1490     65.1004E-03     82.6209E-03
             558            1456     57.9463E-03     69.3106E-03
             558            1457     68.7855E-03     66.6234E-03
             558            1490     65.1004E-03     82.6209E-03
             558            1491     77.8443E-03     77.2043E-03
             559            1457     68.7855E-03     66.6234E-03
             559            1458     67.5538E-03     61.9990E-03
             559            1491     77.8443E-03     77.2043E-03
             559            1492     75.4923E-03     70.4704E-03
             560            1458     67.5538E-03     61.9990E-03
             560            1459     56.6253E-03     59.9782E-03
             560            1492     75.4923E-03     70.4704E-03
             560            1493     60.1102E-03     66.8647E-03
             561            1459     56.6253E-03     59.9782E-03
             561            1460     53.8154E-03     52.6267E-03
             561            1493     60.1102E-03     66.8647E-03
             561            1494     56.1308E-03     55.9234E-03
             562            1460     53.8154E-03     52.6267E-03
             562            1461     49.2544E-03     49.0896E-03
             562            1494     56.1308E-03     55.9234E-03
             562            1495     48.9762E-03     50.3217E-03
             563            1461     49.2544E-03     49.0896E-03
             563            1462     44.7873E-03     45.3383E-03
             563            1495     48.9762E-03     50.3217E-03
             563            1496     42.3409E-03     43.9700E-03
             564            1462     44.7873E-03     45.3383E-03
             564            1463     41.6358E-03     41.8970E-03
             564            1496     42.3409E-03     43.9700E-03
             564            1497     37.6459E-03     38.0681E-03
             565            1463     41.6358E-03     41.8970E-03
             565            1464     38.4048E-03     39.6286E-03
             565            1497     37.6459E-03     38.0681E-03
             565            1498     32.9723E-03     33.8410E-03
             566            1464     38.4048E-03     39.6286E-03
             566            1465     35.7547E-03     37.5558E-03
             566            1498     32.9723E-03     33.8410E-03
             566            1499     29.9858E-03     31.3452E-03
             567            1465     35.7547E-03     37.5558E-03
             567            1466     33.9493E-03     35.3697E-03
             567            1499     29.9858E-03     31.3452E-03
             567            1500     28.5875E-03     29.6529E-03
             568            1466     33.9493E-03     35.3697E-03
             568            1467     34.1674E-03     35.6967E-03
             568            1500     28.5875E-03     29.6529E-03
             568            1501     26.8594E-03     29.9782E-03
             569            1467     34.1674E-03     35.6967E-03
             569            1468     36.0856E-03     35.9329E-03
             569            1501     26.8594E-03     29.9782E-03
             569            1502     27.8958E-03     28.0053E-03
             570            1468     36.0856E-03     35.9329E-03
             570            1469     35.5717E-03     35.0990E-03
             570            1502     27.8958E-03     28.0053E-03
             570            1503     26.9030E-03     25.6030E-03
             571            1469     35.5717E-03     35.0990E-03
             571            1470     33.9243E-03     34.4732E-03
             571            1503     26.9030E-03     25.6030E-03
             571            1504     23.7879E-03     24.9558E-03
             572             248     17.4021E-03     17.3857E-03
             572             249     12.4284E-03     12.4675E-03
             572            1470     33.9243E-03     34.4732E-03
             572            1504     23.7879E-03     24.9558E-03
             573             182     136.263E-03     158.996E-03
             573             183     157.866E-03     177.689E-03
             573            1471     158.772E-03     157.314E-03
             573            1505     180.993E-03     178.281E-03
             574            1471     158.772E-03     157.314E-03
             574            1472     157.091E-03     148.173E-03
             574            1505     180.993E-03     178.281E-03
             574            1506     173.409E-03     166.014E-03
             575            1472     157.091E-03     148.173E-03
             575            1473     132.376E-03     146.134E-03
             575            1506     173.409E-03     166.014E-03
             575            1507     150.086E-03     161.566E-03
             576            1473     132.376E-03     146.134E-03
             576            1474     130.295E-03     131.450E-03
             576            1507     150.086E-03     161.566E-03
             576            1508     147.300E-03     146.992E-03
             577            1474     130.295E-03     131.450E-03
             577            1475     123.052E-03     127.864E-03
             577            1508     147.300E-03     146.992E-03
             577            1509     138.083E-03     142.459E-03
             578            1475     123.052E-03     127.864E-03
             578            1476     117.797E-03     120.438E-03
             578            1509     138.083E-03     142.459E-03
             578            1510     132.271E-03     133.228E-03
             579            1476     117.797E-03     120.438E-03
             579            1477     111.438E-03     120.047E-03
             579            1510     132.271E-03     133.228E-03
             579            1511     123.479E-03     130.106E-03
             580            1477     111.438E-03     120.047E-03
             580            1478     118.239E-03     115.324E-03
             580            1511     123.479E-03     130.106E-03
             580            1512     126.471E-03     122.787E-03
             581            1478     118.239E-03     115.324E-03
             581            1479     115.212E-03     115.125E-03
             581            1512     126.471E-03     122.787E-03
             581            1513     124.353E-03     120.897E-03
             582            1479     115.212E-03     115.125E-03
             582            1480     100.399E-03     129.051E-03
             582            1513     124.353E-03     120.897E-03
             582            1514     117.291E-03     140.155E-03
             583            1480     100.399E-03     129.051E-03
             583            1481     118.721E-03     117.606E-03
             583            1514     117.291E-03     140.155E-03
             583            1515     135.825E-03     134.073E-03
             584            1481     118.721E-03     117.606E-03
             584            1482     116.604E-03     109.496E-03
             584            1515     135.825E-03     134.073E-03
             584            1516     128.531E-03     122.725E-03
             585            1482     116.604E-03     109.496E-03
             585            1483     96.2887E-03     106.628E-03
             585            1516     128.531E-03     122.725E-03
             585            1517     108.476E-03     117.222E-03
             586            1483     96.2887E-03     106.628E-03
             586            1484     93.1955E-03     93.6333E-03
             586            1517     108.476E-03     117.222E-03
             586            1518     104.227E-03     103.731E-03
             587            1484     93.1955E-03     93.6333E-03
             587            1485     85.8413E-03     89.0417E-03
             587            1518     104.227E-03     103.731E-03
             587            1519     94.9349E-03     97.8948E-03
             588            1485     85.8413E-03     89.0417E-03
             588            1486     79.9235E-03     81.9211E-03
             588            1519     94.9349E-03     97.8948E-03
             588            1520     88.0228E-03     88.8976E-03
             589            1486     79.9235E-03     81.9211E-03
             589            1487     74.0653E-03     78.8784E-03
             589            1520     88.0228E-03     88.8976E-03
             589            1521     79.8020E-03     83.3236E-03
             590            1487     74.0653E-03     78.8784E-03
             590            1488     75.2890E-03     74.6103E-03
             590            1521     79.8020E-03     83.3236E-03
             590            1522     77.9597E-03     76.1370E-03
             591            1488     75.2890E-03     74.6103E-03
             591            1489     72.4671E-03     72.7901E-03
             591            1522     77.9597E-03     76.1370E-03
             591            1523     74.7617E-03     72.2919E-03
             592            1489     72.4671E-03     72.7901E-03
             592            1490     65.1004E-03     82.6209E-03
             592            1523     74.7617E-03     72.2919E-03
             592            1524     74.0665E-03     88.1364E-03
             593            1490     65.1004E-03     82.6209E-03
             593            1491     77.8443E-03     77.2043E-03
             593            1524     74.0665E-03     88.1364E-03
             593            1525     88.9492E-03     88.1720E-03
             594            1491     77.8443E-03     77.2043E-03
             594            1492     75.4923E-03     70.4704E-03
             594            1525     88.9492E-03     88.1720E-03
             594            1526     82.1249E-03     78.0045E-03
             595            1492     75.4923E-03     70.4704E-03
             595            1493     60.1102E-03     66.8647E-03
             595            1526     82.1249E-03     78.0045E-03
             595            1527     65.7344E-03     71.5665E-03
             596            1493     60.1102E-03     66.8647E-03
             596            1494     56.1308E-03     55.9234E-03
             596            1527     65.7344E-03     71.5665E-03
             596            1528     60.1087E-03     59.4084E-03
             597            1494     56.1308E-03     55.9234E-03
             597            1495     48.9762E-03     50.3217E-03
             597            1528     60.1087E-03     59.4084E-03
             597            1529     50.9516E-03     52.3828E-03
             598            1495     48.9762E-03     50.3217E-03
             598            1496     42.3409E-03     43.9700E-03
             598            1529     50.9516E-03     52.3828E-03
             598            1530     42.9880E-03     43.9395E-03
             599            1496     42.3409E-03     43.9700E-03
             599            1497     37.6459E-03     38.0681E-03
             599            1530     42.9880E-03     43.9395E-03
             599            1531     35.6870E-03     36.0777E-03
             600            1497     37.6459E-03     38.0681E-03
             600            1498     32.9723E-03     33.8410E-03
             600            1531     35.6870E-03     36.0777E-03
             600            1532     28.6946E-03     28.5484E-03
             601            1498     32.9723E-03     33.8410E-03
             601            1499     29.9858E-03     31.3452E-03
             601            1532     28.6946E-03     28.5484E-03
             601            1533     22.8461E-03     22.7088E-03
             602            1499     29.9858E-03     31.3452E-03
             602            1500     28.5875E-03     29.6529E-03
             602            1533     22.8461E-03     22.7088E-03
             602            1534     20.4292E-03     19.8259E-03
             603            1500     28.5875E-03     29.6529E-03
             603            1501     26.8594E-03     29.9782E-03
             603            1534     20.4292E-03     19.8259E-03
             603            1535     22.1914E-03     25.9788E-03
             604            1501     26.8594E-03     29.9782E-03
             604            1502     27.8958E-03     28.0053E-03
             604            1535     22.1914E-03     25.9788E-03
             604            1536     24.5217E-03     24.6715E-03
             605            1502     27.8958E-03     28.0053E-03
             605            1503     26.9030E-03     25.6030E-03
             605            1536     24.5217E-03     24.6715E-03
             605            1537     18.0779E-03     15.4933E-03
             606            1503     26.9030E-03     25.6030E-03
             606            1504     23.7879E-03     24.9558E-03
             606            1537     18.0779E-03     15.4933E-03
             606            1538     12.4290E-03     16.1955E-03
             607             249     12.4284E-03     12.4675E-03
             607             250     7.61204E-03     9.76557E-03
             607            1504     23.7879E-03     24.9558E-03
             607            1538     12.4290E-03     16.1955E-03
             608              10     166.621E-03     176.977E-03
             608             183     157.866E-03     177.689E-03
             608             284     181.174E-03     178.860E-03
             608            1505     180.993E-03     178.281E-03
             609             283     172.909E-03     168.320E-03
             609             284     181.174E-03     178.860E-03
             609            1505     180.993E-03     178.281E-03
             609            1506     173.409E-03     166.014E-03
             610             282     159.709E-03     164.027E-03
             610             283     172.909E-03     168.320E-03
             610            1506     173.409E-03     166.014E-03
             610            1507     150.086E-03     161.566E-03
             611             281     155.123E-03     153.772E-03
             611             282     159.709E-03     164.027E-03
             611            1507     150.086E-03     161.566E-03
             611            1508     147.300E-03     146.992E-03
             612             280     147.195E-03     148.509E-03
             612             281     155.123E-03     153.772E-03
             612            1508     147.300E-03     146.992E-03
             612            1509     138.083E-03     142.459E-03
             613             279     141.238E-03     140.354E-03
             613             280     147.195E-03     148.509E-03
             613            1509     138.083E-03     142.459E-03
             613            1510     132.271E-03     133.228E-03
             614             278     133.133E-03     134.867E-03
             614             279     141.238E-03     140.354E-03
             614            1510     132.271E-03     133.228E-03
             614            1511     123.479E-03     130.106E-03
             615             277     128.943E-03     125.777E-03
             615             278     133.133E-03     134.867E-03
             615            1511     123.479E-03     130.106E-03
             615            1512     126.471E-03     122.787E-03
             616             276     122.655E-03     118.058E-03
             616             277     128.943E-03     125.777E-03
             616            1512     126.471E-03     122.787E-03
             616            1513     124.353E-03     120.897E-03
             617             275     124.227E-03     133.326E-03
             617             276     122.655E-03     118.058E-03
             617            1513     124.353E-03     120.897E-03
             617            1514     117.291E-03     140.155E-03
             618             274     136.276E-03     135.108E-03
             618             275     124.227E-03     133.326E-03
             618            1514     117.291E-03     140.155E-03
             618            1515     135.825E-03     134.073E-03
             619             273     127.706E-03     124.237E-03
             619             274     136.276E-03     135.108E-03
             619            1515     135.825E-03     134.073E-03
             619            1516     128.531E-03     122.725E-03
             620             272     115.218E-03     118.645E-03
             620             273     127.706E-03     124.237E-03
             620            1516     128.531E-03     122.725E-03
             620            1517     108.476E-03     117.222E-03
             621             271     109.591E-03     108.541E-03
             621             272     115.218E-03     118.645E-03
             621            1517     108.476E-03     117.222E-03
             621            1518     104.227E-03     103.731E-03
             622             270     101.431E-03     102.305E-03
             622             271     109.591E-03     108.541E-03
             622            1518     104.227E-03     103.731E-03
             622            1519     94.9349E-03     97.8948E-03
             623             269     94.6320E-03     94.0951E-03
             623             270     101.431E-03     102.305E-03
             623            1519     94.9349E-03     97.8948E-03
             623            1520     88.0228E-03     88.8976E-03
             624             268     86.5876E-03     87.2405E-03
             624             269     94.6320E-03     94.0951E-03
             624            1520     88.0228E-03     88.8976E-03
             624            1521     79.8020E-03     83.3236E-03
             625             267     80.3170E-03     78.3642E-03
             625             268     86.5876E-03     87.2405E-03
             625            1521     79.8020E-03     83.3236E-03
             625            1522     77.9597E-03     76.1370E-03
             626             266     73.1507E-03     69.6317E-03
             626             267     80.3170E-03     78.3642E-03
             626            1522     77.9597E-03     76.1370E-03
             626            1523     74.7617E-03     72.2919E-03
             627             265     77.9810E-03     83.8510E-03
             627             266     73.1507E-03     69.6317E-03
             627            1523     74.7617E-03     72.2919E-03
             627            1524     74.0665E-03     88.1364E-03
             628             264     89.3837E-03     89.4591E-03
             628             265     77.9810E-03     83.8510E-03
             628            1524     74.0665E-03     88.1364E-03
             628            1525     88.9492E-03     88.1720E-03
             629             263     80.7920E-03     78.4918E-03
             629             264     89.3837E-03     89.4591E-03
             629            1525     88.9492E-03     88.1720E-03
             629            1526     82.1249E-03     78.0045E-03
             630             262     69.2957E-03     71.8312E-03
             630             263     80.7920E-03     78.4918E-03
             630            1526     82.1249E-03     78.0045E-03
             630            1527     65.7344E-03     71.5665E-03
             631             261     62.9236E-03     62.1640E-03
             631             262     69.2957E-03     71.8312E-03
             631            1527     65.7344E-03     71.5665E-03
             631            1528     60.1087E-03     59.4084E-03
             632             260     54.7821E-03     55.3232E-03
             632             261     62.9236E-03     62.1640E-03
             632            1528     60.1087E-03     59.4084E-03
             632            1529     50.9516E-03     52.3828E-03
             633             259     47.7281E-03     47.4675E-03
             633             260     54.7821E-03     55.3232E-03
             633            1529     50.9516E-03     52.3828E-03
             633            1530     42.9880E-03     43.9395E-03
             634             258     40.1441E-03     40.0410E-03
             634             259     47.7281E-03     47.4675E-03
             634            1530     42.9880E-03     43.9395E-03
             634            1531     35.6870E-03     36.0777E-03
             635             257     32.9369E-03     32.1101E-03
             635             258     40.1441E-03     40.0410E-03
             635            1531     35.6870E-03     36.0777E-03
             635            1532     28.6946E-03     28.5484E-03
             636             256     25.3328E-03     24.5253E-03
             636             257     32.9369E-03     32.1101E-03
             636            1532     28.6946E-03     28.5484E-03
             636            1533     22.8461E-03     22.7088E-03
             637             255     19.3932E-03     18.5606E-03
             637             256     25.3328E-03     24.5253E-03
             637            1533     22.8461E-03     22.7088E-03
             637            1534     20.4292E-03     19.8259E-03
             638             254     21.7066E-03     25.2889E-03
             638             255     19.3932E-03     18.5606E-03
             638            1534     20.4292E-03     19.8259E-03
             638            1535     22.1914E-03     25.9788E-03
             639             253     23.6366E-03     24.6189E-03
             639             254     21.7066E-03     25.2889E-03
             639            1535     22.1914E-03     25.9788E-03
             639            1536     24.5217E-03     24.6715E-03
             640             252     14.0913E-03     11.7364E-03
             640             253     23.6366E-03     24.6189E-03
             640            1536     24.5217E-03     24.6715E-03
             640            1537     18.0779E-03     15.4933E-03
             641             251     7.52781E-03     12.2347E-03
             641             252     14.0913E-03     11.7364E-03
             641            1537     18.0779E-03     15.4933E-03
             641            1538     12.4290E-03     16.1955E-03
             642              15     4.95143E-03     8.73621E-03
             642             250     7.61204E-03     9.76557E-03
             642             251     7.52781E-03     12.2347E-03
             642            1538     12.4290E-03     16.1955E-03
             643              16     4.85683E-03     6.06121E-03
             643             285     5.19252E-03     5.89992E-03
             643             324     626.089E-06     626.199E-06
             643            1539     616.039E-06     628.697E-06
             644             285     5.19252E-03     5.89992E-03
             644             286     5.62463E-03     5.64659E-03
             644            1539     616.039E-06     628.697E-06
             644            1540     599.551E-06     621.044E-06
             645             286     5.62463E-03     5.64659E-03
             645             287     5.80047E-03     5.59056E-03
             645            1540     599.551E-06     621.044E-06
             645            1541     592.215E-06     612.606E-06
             646             287     5.80047E-03     5.59056E-03
             646             288     5.96655E-03     5.64594E-03
             646            1541     592.215E-06     612.606E-06
             646            1542     590.399E-06     615.291E-06
             647             288     5.96655E-03     5.64594E-03
             647             289     6.13994E-03     5.72297E-03
             647            1542     590.399E-06     615.291E-06
             647            1543     589.155E-06     616.991E-06
             648             289     6.13994E-03     5.72297E-03
             648             290     6.32010E-03     5.83096E-03
             648            1543     589.155E-06     616.991E-06
             648            1544     587.926E-06     618.836E-06
             649             290     6.32010E-03     5.83096E-03
             649             291     6.51993E-03     5.95930E-03
             649            1544     587.926E-06     618.836E-06
             649            1545     586.948E-06     620.833E-06
             650             291     6.51993E-03     5.95930E-03
             650             292     6.72367E-03     6.10095E-03
             650            1545     586.948E-06     620.833E-06
             650            1546     586.538E-06     622.827E-06
             651             292     6.72367E-03     6.10095E-03
             651             293     6.94137E-03     6.25929E-03
             651            1546     586.538E-06     622.827E-06
             651            1547     586.201E-06     625.195E-06
             652             293     6.94137E-03     6.25929E-03
             652             294     7.15231E-03     6.41538E-03
             652            1547     586.201E-06     625.195E-06
             652            1548     586.525E-06     627.359E-06
             653             294     7.15231E-03     6.41538E-03
             653             295     7.36588E-03     6.57530E-03
             653            1548     586.525E-06     627.359E-06
             653            1549     586.834E-06     630.107E-06
             654             295     7.36588E-03     6.57530E-03
             654             296     7.54730E-03     6.70716E-03
             654            1549     586.834E-06     630.107E-06
             654            1550     587.949E-06     632.395E-06
             655             296     7.54730E-03     6.70716E-03
             655             297     7.70539E-03     6.80641E-03
             655            1550     587.949E-06     632.395E-06
             655            1551     588.909E-06     635.618E-06
             656             297     7.70539E-03     6.80641E-03
             656             298     7.77151E-03     6.82511E-03
             656            1551     588.909E-06     635.618E-06
             656            1552     590.893E-06     638.051E-06
             657             298     7.77151E-03     6.82511E-03
             657             299     7.74442E-03     6.71600E-03
             657            1552     590.893E-06     638.051E-06
             657            1553     592.798E-06     641.856E-06
             658             299     7.74442E-03     6.71600E-03
             658             300     7.49535E-03     6.40120E-03
             658            1553     592.798E-06     641.856E-06
             658            1554     595.502E-06     644.788E-06
             659             300     7.49535E-03     6.40120E-03
             659             301     6.98896E-03     5.76107E-03
             659            1554     595.502E-06     644.788E-06
             659            1555     598.928E-06     648.403E-06
             660             301     6.98896E-03     5.76107E-03
             660             302     5.98976E-03     4.58006E-03
             660            1555     598.928E-06     648.403E-06
             660            1556     606.115E-06     657.438E-06
             661              17     4.32785E-03     3.06244E-03
             661             302     5.98976E-03     4.58006E-03
             661             303     630.255E-06     675.442E-06
             661            1556     606.115E-06     657.438E-06
             662             323     632.700E-06     631.709E-06
             662             324     626.089E-06     626.199E-06
             662            1539     616.039E-06     628.697E-06
             662            1557     624.848E-06     631.426E-06
             663            1539     616.039E-06     628.697E-06
             663            1540     599.551E-06     621.044E-06
             663            1557     624.848E-06     631.426E-06
             663            1558     612.824E-06     619.285E-06
             664            1540     599.551E-06     621.044E-06
             664            1541     592.215E-06     612.606E-06
             664            1558     612.824E-06     619.285E-06
             664            1559     609.511E-06     607.504E-06
             665            1541     592.215E-06     612.606E-06
             665            1542     590.399E-06     615.291E-06
             665            1559     609.511E-06     607.504E-06
             665            1560     611.013E-06     607.037E-06
             666            1542     590.399E-06     615.291E-06
             666            1543     589.155E-06     616.991E-06
             666            1560     611.013E-06     607.037E-06
             666            1561     612.963E-06     605.646E-06
             667            1543     589.155E-06     616.991E-06
             667            1544     587.926E-06     618.836E-06
             667            1561     612.963E-06     605.646E-06
             667            1562     614.748E-06     604.566E-06
             668            1544     587.926E-06     618.836E-06
             668            1545     586.948E-06     620.833E-06
             668            1562     614.748E-06     604.566E-06
             668            1563     616.562E-06     603.851E-06
             669            1545     586.948E-06     620.833E-06
             669            1546     586.538E-06     622.827E-06
             669            1563     616.562E-06     603.851E-06
             669            1564     618.746E-06     603.327E-06
             670            1546     586.538E-06     622.827E-06
             670            1547     586.201E-06     625.195E-06
             670            1564     618.746E-06     603.327E-06
             670            1565     620.778E-06     603.363E-06
             671            1547     586.201E-06     625.195E-06
             671            1548     586.525E-06     627.359E-06
             671            1565     620.778E-06     603.363E-06
             671            1566     623.255E-06     603.438E-06
             672            1548     586.525E-06     627.359E-06
             672            1549     586.834E-06     630.107E-06
             672            1566     623.255E-06     603.438E-06
             672            1567     625.512E-06     604.209E-06
             673            1549     586.834E-06     630.107E-06
             673            1550     587.949E-06     632.395E-06
             673            1567     625.512E-06     604.209E-06
             673            1568     628.286E-06     604.873E-06
             674            1550     587.949E-06     632.395E-06
             674            1551     588.909E-06     635.618E-06
             674            1568     628.286E-06     604.873E-06
             674            1569     630.742E-06     606.382E-06
             675            1551     588.909E-06     635.618E-06
             675            1552     590.893E-06     638.051E-06
             675            1569     630.742E-06     606.382E-06
             675            1570     633.771E-06     607.654E-06
             676            1552     590.893E-06     638.051E-06
             676            1553     592.798E-06     641.856E-06
             676            1570     633.771E-06     607.654E-06
             676            1571     636.510E-06     609.743E-06
             677            1553     592.798E-06     641.856E-06
             677            1554     595.502E-06     644.788E-06
             677            1571     636.510E-06     609.743E-06
             677            1572     639.228E-06     611.702E-06
             678            1554     595.502E-06     644.788E-06
             678            1555     598.928E-06     648.403E-06
             678            1572     639.228E-06     611.702E-06
             678            1573     641.553E-06     612.384E-06
             679            1555     598.928E-06     648.403E-06
             679            1556     606.115E-06     657.438E-06
             679            1573     641.553E-06     612.384E-06
             679            1574     648.390E-06     621.165E-06
             680             303     630.255E-06     675.442E-06
             680             304     669.845E-06     635.795E-06
             680            1556     606.115E-06     657.438E-06
             680            1574     648.390E-06     621.165E-06
             681              19     567.124E-06     578.968E-06
             681             322     604.847E-06     612.216E-06
             681             323     632.700E-06     631.709E-06
             681            1557     624.848E-06     631.426E-06
             682             321     639.557E-06     634.982E-06
             682             322     604.847E-06     612.216E-06
             682            1557     624.848E-06     631.426E-06
             682            1558     612.824E-06     619.285E-06
             683             320     637.179E-06     621.632E-06
             683             321     639.557E-06     634.982E-06
             683            1558     612.824E-06     619.285E-06
             683            1559     609.511E-06     607.504E-06
             684             319     638.906E-06     616.580E-06
             684             320     637.179E-06     621.632E-06
             684            1559     609.511E-06     607.504E-06
             684            1560     611.013E-06     607.037E-06
             685             318     641.203E-06     613.124E-06
             685             319     638.906E-06     616.580E-06
             685            1560     611.013E-06     607.037E-06
             685            1561     612.963E-06     605.646E-06
             686             317     643.656E-06     609.786E-06
             686             318     641.203E-06     613.124E-06
             686            1561     612.963E-06     605.646E-06
             686            1562     614.748E-06     604.566E-06
             687             316     646.103E-06     606.683E-06
             687             317     643.656E-06     609.786E-06
             687            1562     614.748E-06     604.566E-06
             687            1563     616.562E-06     603.851E-06
             688             315     648.488E-06     604.329E-06
             688             316     646.103E-06     606.683E-06
             688            1563     616.562E-06     603.851E-06
             688            1564     618.746E-06     603.327E-06
             689             314     651.150E-06     602.089E-06
             689             315     648.488E-06     604.329E-06
             689            1564     618.746E-06     603.327E-06
             689            1565     620.778E-06     603.363E-06
             690             313     653.510E-06     600.698E-06
             690             314     651.150E-06     602.089E-06
             690            1565     620.778E-06     603.363E-06
             690            1566     623.255E-06     603.438E-06
             691             312     656.411E-06     599.293E-06
             691             313     653.510E-06     600.698E-06
             691            1566     623.255E-06     603.438E-06
             691            1567     625.512E-06     604.209E-06
             692             311     658.664E-06     598.949E-06
             692             312     656.411E-06     599.293E-06
             692            1567     625.512E-06     604.209E-06
             692            1568     628.286E-06     604.873E-06
             693             310     661.870E-06     598.279E-06
             693             311     658.664E-06     598.949E-06
             693            1568     628.286E-06     604.873E-06
             693            1569     630.742E-06     606.382E-06
             694             309     663.934E-06     599.060E-06
             694             310     661.870E-06     598.279E-06
             694            1569     630.742E-06     606.382E-06
             694            1570     633.771E-06     607.654E-06
             695             308     667.310E-06     598.970E-06
             695             309     663.934E-06     599.060E-06
             695            1570     633.771E-06     607.654E-06
             695            1571     636.510E-06     609.743E-06
             696             307     668.846E-06     600.352E-06
             696             308     667.310E-06     598.970E-06
             696            1571     636.510E-06     609.743E-06
             696            1572     639.228E-06     611.702E-06
             697             306     670.911E-06     600.250E-06
             697             307     668.846E-06     600.352E-06
             697            1572     639.228E-06     611.702E-06
             697            1573     641.553E-06     612.384E-06
             698             305     681.294E-06     607.770E-06
             698             306     670.911E-06     600.250E-06
             698            1573     641.553E-06     612.384E-06
             698            1574     648.390E-06     621.165E-06
             699              18     662.599E-06     592.163E-06
             699             304     669.845E-06     635.795E-06
             699             305     681.294E-06     607.770E-06
             699            1574     648.390E-06     621.165E-06
             700              16     4.85683E-03     6.06121E-03
             700             325     5.19252E-03     5.89992E-03
             700             454     9.79616E-03     11.1499E-03
             700            1575     9.90590E-03     10.9447E-03
             701             325     5.19252E-03     5.89992E-03
             701             326     5.62463E-03     5.64659E-03
             701            1575     9.90590E-03     10.9447E-03
             701            1576     10.2438E-03     10.5571E-03
             702             326     5.62463E-03     5.64659E-03
             702             327     5.80047E-03     5.59056E-03
             702            1576     10.2438E-03     10.5571E-03
             702            1577     10.6702E-03     10.3899E-03
             703             327     5.80047E-03     5.59056E-03
             703             328     5.96655E-03     5.64594E-03
             703            1577     10.6702E-03     10.3899E-03
             703            1578     11.0270E-03     10.4722E-03
             704             328     5.96655E-03     5.64594E-03
             704             329     6.13994E-03     5.72297E-03
             704            1578     11.0270E-03     10.4722E-03
             704            1579     11.3762E-03     10.6362E-03
             705             329     6.13994E-03     5.72297E-03
             705             330     6.32010E-03     5.83096E-03
             705            1579     11.3762E-03     10.6362E-03
             705            1580     11.7564E-03     10.8667E-03
             706             330     6.32010E-03     5.83096E-03
             706             331     6.51993E-03     5.95930E-03
             706            1580     11.7564E-03     10.8667E-03
             706            1581     12.1573E-03     11.1477E-03
             707             331     6.51993E-03     5.95930E-03
             707             332     6.72367E-03     6.10095E-03
             707            1581     12.1573E-03     11.1477E-03
             707            1582     12.5883E-03     11.4648E-03
             708             332     6.72367E-03     6.10095E-03
             708             333     6.94137E-03     6.25929E-03
             708            1582     12.5883E-03     11.4648E-03
             708            1583     13.0373E-03     11.8130E-03
             709             333     6.94137E-03     6.25929E-03
             709             334     7.15231E-03     6.41538E-03
             709            1583     13.0373E-03     11.8130E-03
             709            1584     13.5011E-03     12.1798E-03
             710             334     7.15231E-03     6.41538E-03
             710             335     7.36588E-03     6.57530E-03
             710            1584     13.5011E-03     12.1798E-03
             710            1585     13.9624E-03     12.5529E-03
             711             335     7.36588E-03     6.57530E-03
             711             336     7.54730E-03     6.70716E-03
             711            1585     13.9624E-03     12.5529E-03
             711            1586     14.4112E-03     12.9089E-03
             712             336     7.54730E-03     6.70716E-03
             712             337     7.70539E-03     6.80641E-03
             712            1586     14.4112E-03     12.9089E-03
             712            1587     14.8023E-03     13.2190E-03
             713             337     7.70539E-03     6.80641E-03
             713             338     7.77151E-03     6.82511E-03
             713            1587     14.8023E-03     13.2190E-03
             713            1588     15.1077E-03     13.4179E-03
             714             338     7.77151E-03     6.82511E-03
             714             339     7.74442E-03     6.71600E-03
             714            1588     15.1077E-03     13.4179E-03
             714            1589     15.2016E-03     13.4268E-03
             715             339     7.74442E-03     6.71600E-03
             715             340     7.49535E-03     6.40120E-03
             715            1589     15.2016E-03     13.4268E-03
             715            1590     14.9824E-03     13.0660E-03
             716             340     7.49535E-03     6.40120E-03
             716             341     6.98896E-03     5.76107E-03
             716            1590     14.9824E-03     13.0660E-03
             716            1591     14.1373E-03     12.0971E-03
             717             341     6.98896E-03     5.76107E-03
             717             342     5.98976E-03     4.58006E-03
             717            1591     14.1373E-03     12.0971E-03
             717            1592     12.3491E-03     10.1310E-03
             718              20     4.32785E-03     3.06244E-03
             718             342     5.98976E-03     4.58006E-03
             718             343     8.52676E-03     6.66110E-03
             718            1592     12.3491E-03     10.1310E-03
             719             453     10.2000E-03     9.64836E-03
             719             454     9.79616E-03     11.1499E-03
             719            1575     9.90590E-03     10.9447E-03
             719            1593     9.99523E-03     9.85843E-03
             720            1575     9.90590E-03     10.9447E-03
             720            1576     10.2438E-03     10.5571E-03
             720            1593     9.99523E-03     9.85843E-03
             720            1594     9.84597E-03     10.0531E-03
             721            1576     10.2438E-03     10.5571E-03
             721            1577     10.6702E-03     10.3899E-03
             721            1594     9.84597E-03     10.0531E-03
             721            1595     10.0838E-03     10.0237E-03
             722            1577     10.6702E-03     10.3899E-03
             722            1578     11.0270E-03     10.4722E-03
             722            1595     10.0838E-03     10.0237E-03
             722            1596     10.4302E-03     10.0976E-03
             723            1578     11.0270E-03     10.4722E-03
             723            1579     11.3762E-03     10.6362E-03
             723            1596     10.4302E-03     10.0976E-03
             723            1597     10.7787E-03     10.3038E-03
             724            1579     11.3762E-03     10.6362E-03
             724            1580     11.7564E-03     10.8667E-03
             724            1597     10.7787E-03     10.3038E-03
             724            1598     11.1618E-03     10.5788E-03
             725            1580     11.7564E-03     10.8667E-03
             725            1581     12.1573E-03     11.1477E-03
             725            1598     11.1618E-03     10.5788E-03
             725            1599     11.5796E-03     10.9151E-03
             726            1581     12.1573E-03     11.1477E-03
             726            1582     12.5883E-03     11.4648E-03
             726            1599     11.5796E-03     10.9151E-03
             726            1600     12.0355E-03     11.2995E-03
             727            1582     12.5883E-03     11.4648E-03
             727            1583     13.0373E-03     11.8130E-03
             727            1600     12.0355E-03     11.2995E-03
             727            1601     12.5253E-03     11.7269E-03
             728            1583     13.0373E-03     11.8130E-03
             728            1584     13.5011E-03     12.1798E-03
             728            1601     12.5253E-03     11.7269E-03
             728            1602     13.0471E-03     12.1920E-03
             729            1584     13.5011E-03     12.1798E-03
             729            1585     13.9624E-03     12.5529E-03
             729            1602     13.0471E-03     12.1920E-03
             729            1603     13.5978E-03     12.6884E-03
             730            1585     13.9624E-03     12.5529E-03
             730            1586     14.4112E-03     12.9089E-03
             730            1603     13.5978E-03     12.6884E-03
             730            1604     14.1664E-03     13.2091E-03
             731            1586     14.4112E-03     12.9089E-03
             731            1587     14.8023E-03     13.2190E-03
             731            1604     14.1664E-03     13.2091E-03
             731            1605     14.7445E-03     13.7342E-03
             732            1587     14.8023E-03     13.2190E-03
             732            1588     15.1077E-03     13.4179E-03
             732            1605     14.7445E-03     13.7342E-03
             732            1606     15.2808E-03     14.2309E-03
             733            1588     15.1077E-03     13.4179E-03
             733            1589     15.2016E-03     13.4268E-03
             733            1606     15.2808E-03     14.2309E-03
             733            1607     15.7216E-03     14.6155E-03
             734            1589     15.2016E-03     13.4268E-03
             734            1590     14.9824E-03     13.0660E-03
             734            1607     15.7216E-03     14.6155E-03
             734            1608     15.8680E-03     14.7525E-03
             735            1590     14.9824E-03     13.0660E-03
             735            1591     14.1373E-03     12.0971E-03
             735            1608     15.8680E-03     14.7525E-03
             735            1609     15.3975E-03     14.2964E-03
             736            1591     14.1373E-03     12.0971E-03
             736            1592     12.3491E-03     10.1310E-03
             736            1609     15.3975E-03     14.2964E-03
             736            1610     13.8339E-03     12.8633E-03
             737             343     8.52676E-03     6.66110E-03
             737             344     10.0538E-03     9.67075E-03
             737            1592     12.3491E-03     10.1310E-03
             737            1610     13.8339E-03     12.8633E-03
             738             452     9.69565E-03     8.62320E-03
             738             453     10.2000E-03     9.64836E-03
             738            1593     9.99523E-03     9.85843E-03
             738            1611     9.70156E-03     8.82657E-03
             739            1593     9.99523E-03     9.85843E-03
             739            1594     9.84597E-03     10.0531E-03
             739            1611     9.70156E-03     8.82657E-03
             739            1612     9.64360E-03     9.23359E-03
             740            1594     9.84597E-03     10.0531E-03
             740            1595     10.0838E-03     10.0237E-03
             740            1612     9.64360E-03     9.23359E-03
             740            1613     9.65282E-03     9.52374E-03
             741            1595     10.0838E-03     10.0237E-03
             741            1596     10.4302E-03     10.0976E-03
             741            1613     9.65282E-03     9.52374E-03
             741            1614     9.87990E-03     9.72671E-03
             742            1596     10.4302E-03     10.0976E-03
             742            1597     10.7787E-03     10.3038E-03
             742            1614     9.87990E-03     9.72671E-03
             742            1615     10.1997E-03     9.99958E-03
             743            1597     10.7787E-03     10.3038E-03
             743            1598     11.1618E-03     10.5788E-03
             743            1615     10.1997E-03     9.99958E-03
             743            1616     10.5737E-03     10.3331E-03
             744            1598     11.1618E-03     10.5788E-03
             744            1599     11.5796E-03     10.9151E-03
             744            1616     10.5737E-03     10.3331E-03
             744            1617     11.0075E-03     10.7254E-03
             745            1599     11.5796E-03     10.9151E-03
             745            1600     12.0355E-03     11.2995E-03
             745            1617     11.0075E-03     10.7254E-03
             745            1618     11.4838E-03     11.1751E-03
             746            1600     12.0355E-03     11.2995E-03
             746            1601     12.5253E-03     11.7269E-03
             746            1618     11.4838E-03     11.1751E-03
             746            1619     12.0100E-03     11.6749E-03
             747            1601     12.5253E-03     11.7269E-03
             747            1602     13.0471E-03     12.1920E-03
             747            1619     12.0100E-03     11.6749E-03
             747            1620     12.5789E-03     12.2238E-03
             748            1602     13.0471E-03     12.1920E-03
             748            1603     13.5978E-03     12.6884E-03
             748            1620     12.5789E-03     12.2238E-03
             748            1621     13.1957E-03     12.8209E-03
             749            1603     13.5978E-03     12.6884E-03
             749            1604     14.1664E-03     13.2091E-03
             749            1621     13.1957E-03     12.8209E-03
             749            1622     13.8537E-03     13.4637E-03
             750            1604     14.1664E-03     13.2091E-03
             750            1605     14.7445E-03     13.7342E-03
             750            1622     13.8537E-03     13.4637E-03
             750            1623     14.5493E-03     14.1432E-03
             751            1605     14.7445E-03     13.7342E-03
             751            1606     15.2808E-03     14.2309E-03
             751            1623     14.5493E-03     14.1432E-03
             751            1624     15.2505E-03     14.8380E-03
             752            1606     15.2808E-03     14.2309E-03
             752            1607     15.7216E-03     14.6155E-03
             752            1624     15.2505E-03     14.8380E-03
             752            1625     15.8921E-03     15.4778E-03
             753            1607     15.7216E-03     14.6155E-03
             753            1608     15.8680E-03     14.7525E-03
             753            1625     15.8921E-03     15.4778E-03
             753            1626     16.3137E-03     15.9359E-03
             754            1608     15.8680E-03     14.7525E-03
             754            1609     15.3975E-03     14.2964E-03
             754            1626     16.3137E-03     15.9359E-03
             754            1627     16.1953E-03     15.9292E-03
             755            1609     15.3975E-03     14.2964E-03
             755            1610     13.8339E-03     12.8633E-03
             755            1627     16.1953E-03     15.9292E-03
             755            1628     14.8627E-03     14.9266E-03
             756             344     10.0538E-03     9.67075E-03
             756             345     13.0495E-03     13.2009E-03
             756            1610     13.8339E-03     12.8633E-03
             756            1628     14.8627E-03     14.9266E-03
             757             451     9.23667E-03     8.30165E-03
             757             452     9.69565E-03     8.62320E-03
             757            1611     9.70156E-03     8.82657E-03
             757            1629     9.19949E-03     8.35779E-03
             758            1611     9.70156E-03     8.82657E-03
             758            1612     9.64360E-03     9.23359E-03
             758            1629     9.19949E-03     8.35779E-03
             758            1630     9.18428E-03     8.59265E-03
             759            1612     9.64360E-03     9.23359E-03
             759            1613     9.65282E-03     9.52374E-03
             759            1630     9.18428E-03     8.59265E-03
             759            1631     9.22335E-03     8.99136E-03
             760            1613     9.65282E-03     9.52374E-03
             760            1614     9.87990E-03     9.72671E-03
             760            1631     9.22335E-03     8.99136E-03
             760            1632     9.33996E-03     9.37500E-03
             761            1614     9.87990E-03     9.72671E-03
             761            1615     10.1997E-03     9.99958E-03
             761            1632     9.33996E-03     9.37500E-03
             761            1633     9.61654E-03     9.71690E-03
             762            1615     10.1997E-03     9.99958E-03
             762            1616     10.5737E-03     10.3331E-03
             762            1633     9.61654E-03     9.71690E-03
             762            1634     9.99104E-03     10.1114E-03
             763            1616     10.5737E-03     10.3331E-03
             763            1617     11.0075E-03     10.7254E-03
             763            1634     9.99104E-03     10.1114E-03
             763            1635     10.4236E-03     10.5622E-03
             764            1617     11.0075E-03     10.7254E-03
             764            1618     11.4838E-03     11.1751E-03
             764            1635     10.4236E-03     10.5622E-03
             764            1636     10.9195E-03     11.0664E-03
             765            1618     11.4838E-03     11.1751E-03
             765            1619     12.0100E-03     11.6749E-03
             765            1636     10.9195E-03     11.0664E-03
             765            1637     11.4626E-03     11.6228E-03
             766            1619     12.0100E-03     11.6749E-03
             766            1620     12.5789E-03     12.2238E-03
             766            1637     11.4626E-03     11.6228E-03
             766            1638     12.0607E-03     12.2294E-03
             767            1620     12.5789E-03     12.2238E-03
             767            1621     13.1957E-03     12.8209E-03
             767            1638     12.0607E-03     12.2294E-03
             767            1639     12.7041E-03     12.8845E-03
             768            1621     13.1957E-03     12.8209E-03
             768            1622     13.8537E-03     13.4637E-03
             768            1639     12.7041E-03     12.8845E-03
             768            1640     13.4029E-03     13.5891E-03
             769            1622     13.8537E-03     13.4637E-03
             769            1623     14.5493E-03     14.1432E-03
             769            1640     13.4029E-03     13.5891E-03
             769            1641     14.1367E-03     14.3403E-03
             770            1623     14.5493E-03     14.1432E-03
             770            1624     15.2505E-03     14.8380E-03
             770            1641     14.1367E-03     14.3403E-03
             770            1642     14.9100E-03     15.1181E-03
             771            1624     15.2505E-03     14.8380E-03
             771            1625     15.8921E-03     15.4778E-03
             771            1642     14.9100E-03     15.1181E-03
             771            1643     15.6476E-03     15.8985E-03
             772            1625     15.8921E-03     15.4778E-03
             772            1626     16.3137E-03     15.9359E-03
             772            1643     15.6476E-03     15.8985E-03
             772            1644     16.2717E-03     16.5573E-03
             773            1626     16.3137E-03     15.9359E-03
             773            1627     16.1953E-03     15.9292E-03
             773            1644     16.2717E-03     16.5573E-03
             773            1645     16.6034E-03     16.9891E-03
             774            1627     16.1953E-03     15.9292E-03
             774            1628     14.8627E-03     14.9266E-03
             774            1645     16.6034E-03     16.9891E-03
             774            1646     16.3714E-03     16.9116E-03
             775             345     13.0495E-03     13.2009E-03
             775             346     16.5360E-03     16.9393E-03
             775            1628     14.8627E-03     14.9266E-03
             775            1646     16.3714E-03     16.9116E-03
             776             450     8.71763E-03     7.58785E-03
             776             451     9.23667E-03     8.30165E-03
             776            1629     9.19949E-03     8.35779E-03
             776            1647     8.70754E-03     7.78586E-03
             777            1629     9.19949E-03     8.35779E-03
             777            1630     9.18428E-03     8.59265E-03
             777            1647     8.70754E-03     7.78586E-03
             777            1648     8.62922E-03     8.21736E-03
             778            1630     9.18428E-03     8.59265E-03
             778            1631     9.22335E-03     8.99136E-03
             778            1648     8.62922E-03     8.21736E-03
             778            1649     8.59785E-03     8.65001E-03
             779            1631     9.22335E-03     8.99136E-03
             779            1632     9.33996E-03     9.37500E-03
             779            1649     8.59785E-03     8.65001E-03
             779            1650     8.75145E-03     9.04366E-03
             780            1632     9.33996E-03     9.37500E-03
             780            1633     9.61654E-03     9.71690E-03
             780            1650     8.75145E-03     9.04366E-03
             780            1651     9.02476E-03     9.45568E-03
             781            1633     9.61654E-03     9.71690E-03
             781            1634     9.99104E-03     10.1114E-03
             781            1651     9.02476E-03     9.45568E-03
             781            1652     9.38673E-03     9.90759E-03
             782            1634     9.99104E-03     10.1114E-03
             782            1635     10.4236E-03     10.5622E-03
             782            1652     9.38673E-03     9.90759E-03
             782            1653     9.82708E-03     10.4089E-03
             783            1635     10.4236E-03     10.5622E-03
             783            1636     10.9195E-03     11.0664E-03
             783            1653     9.82708E-03     10.4089E-03
             783            1654     10.3226E-03     10.9588E-03
             784            1636     10.9195E-03     11.0664E-03
             784            1637     11.4626E-03     11.6228E-03
             784            1654     10.3226E-03     10.9588E-03
             784            1655     10.8759E-03     11.5546E-03
             785            1637     11.4626E-03     11.6228E-03
             785            1638     12.0607E-03     12.2294E-03
             785            1655     10.8759E-03     11.5546E-03
             785            1656     11.4726E-03     12.1903E-03
             786            1638     12.0607E-03     12.2294E-03
             786            1639     12.7041E-03     12.8845E-03
             786            1656     11.4726E-03     12.1903E-03
             786            1657     12.1193E-03     12.8668E-03
             787            1639     12.7041E-03     12.8845E-03
             787            1640     13.4029E-03     13.5891E-03
             787            1657     12.1193E-03     12.8668E-03
             787            1658     12.7988E-03     13.5794E-03
             788            1640     13.4029E-03     13.5891E-03
             788            1641     14.1367E-03     14.3403E-03
             788            1658     12.7988E-03     13.5794E-03
             788            1659     13.5273E-03     14.3281E-03
             789            1641     14.1367E-03     14.3403E-03
             789            1642     14.9100E-03     15.1181E-03
             789            1659     13.5273E-03     14.3281E-03
             789            1660     14.2681E-03     15.1125E-03
             790            1642     14.9100E-03     15.1181E-03
             790            1643     15.6476E-03     15.8985E-03
             790            1660     14.2681E-03     15.1125E-03
             790            1661     15.0513E-03     15.9131E-03
             791            1643     15.6476E-03     15.8985E-03
             791            1644     16.2717E-03     16.5573E-03
             791            1661     15.0513E-03     15.9131E-03
             791            1662     15.8124E-03     16.7451E-03
             792            1644     16.2717E-03     16.5573E-03
             792            1645     16.6034E-03     16.9891E-03
             792            1662     15.8124E-03     16.7451E-03
             792            1663     16.5821E-03     17.5391E-03
             793            1645     16.6034E-03     16.9891E-03
             793            1646     16.3714E-03     16.9116E-03
             793            1663     16.5821E-03     17.5391E-03
             793            1664     17.8756E-03     18.6508E-03
             794             346     16.5360E-03     16.9393E-03
             794             347     20.1019E-03     20.6022E-03
             794            1646     16.3714E-03     16.9116E-03
             794            1664     17.8756E-03     18.6508E-03
             795             449     8.15218E-03     7.39893E-03
             795             450     8.71763E-03     7.58785E-03
             795            1647     8.70754E-03     7.78586E-03
             795            1665     7.99140E-03     7.63222E-03
             796            1647     8.70754E-03     7.78586E-03
             796            1648     8.62922E-03     8.21736E-03
             796            1665     7.99140E-03     7.63222E-03
             796            1666     7.81080E-03     8.05658E-03
             797            1648     8.62922E-03     8.21736E-03
             797            1649     8.59785E-03     8.65001E-03
             797            1666     7.81080E-03     8.05658E-03
             797            1667     7.89044E-03     8.39145E-03
             798            1649     8.59785E-03     8.65001E-03
             798            1650     8.75145E-03     9.04366E-03
             798            1667     7.89044E-03     8.39145E-03
             798            1668     8.11374E-03     8.75694E-03
             799            1650     8.75145E-03     9.04366E-03
             799            1651     9.02476E-03     9.45568E-03
             799            1668     8.11374E-03     8.75694E-03
             799            1669     8.40042E-03     9.21576E-03
             800            1651     9.02476E-03     9.45568E-03
             800            1652     9.38673E-03     9.90759E-03
             800            1669     8.40042E-03     9.21576E-03
             800            1670     8.76641E-03     9.71694E-03
             801            1652     9.38673E-03     9.90759E-03
             801            1653     9.82708E-03     10.4089E-03
             801            1670     8.76641E-03     9.71694E-03
             801            1671     9.20090E-03     10.2630E-03
             802            1653     9.82708E-03     10.4089E-03
             802            1654     10.3226E-03     10.9588E-03
             802            1671     9.20090E-03     10.2630E-03
             802            1672     9.69788E-03     10.8509E-03
             803            1654     10.3226E-03     10.9588E-03
             803            1655     10.8759E-03     11.5546E-03
             803            1672     9.69788E-03     10.8509E-03
             803            1673     10.2431E-03     11.4704E-03
             804            1655     10.8759E-03     11.5546E-03
             804            1656     11.4726E-03     12.1903E-03
             804            1673     10.2431E-03     11.4704E-03
             804            1674     10.8333E-03     12.1221E-03
             805            1656     11.4726E-03     12.1903E-03
             805            1657     12.1193E-03     12.8668E-03
             805            1674     10.8333E-03     12.1221E-03
             805            1675     11.4527E-03     12.7941E-03
             806            1657     12.1193E-03     12.8668E-03
             806            1658     12.7988E-03     13.5794E-03
             806            1675     11.4527E-03     12.7941E-03
             806            1676     12.1051E-03     13.4892E-03
             807            1658     12.7988E-03     13.5794E-03
             807            1659     13.5273E-03     14.3281E-03
             807            1676     12.1051E-03     13.4892E-03
             807            1677     12.7702E-03     14.1992E-03
             808            1659     13.5273E-03     14.3281E-03
             808            1660     14.2681E-03     15.1125E-03
             808            1677     12.7702E-03     14.1992E-03
             808            1678     13.4733E-03     14.9377E-03
             809            1660     14.2681E-03     15.1125E-03
             809            1661     15.0513E-03     15.9131E-03
             809            1678     13.4733E-03     14.9377E-03
             809            1679     14.2028E-03     15.7202E-03
             810            1661     15.0513E-03     15.9131E-03
             810            1662     15.8124E-03     16.7451E-03
             810            1679     14.2028E-03     15.7202E-03
             810            1680     15.0655E-03     16.6184E-03
             811            1662     15.8124E-03     16.7451E-03
             811            1663     16.5821E-03     17.5391E-03
             811            1680     15.0655E-03     16.6184E-03
             811            1681     16.2084E-03     17.7905E-03
             812            1663     16.5821E-03     17.5391E-03
             812            1664     17.8756E-03     18.6508E-03
             812            1681     16.2084E-03     17.7905E-03
             812            1682     18.1582E-03     19.6458E-03
             813             347     20.1019E-03     20.6022E-03
             813             348     22.6129E-03     23.4729E-03
             813            1664     17.8756E-03     18.6508E-03
             813            1682     18.1582E-03     19.6458E-03
             814             448     6.95681E-03     7.62027E-03
             814             449     8.15218E-03     7.39893E-03
             814            1665     7.99140E-03     7.63222E-03
             814            1683     6.92243E-03     7.70752E-03
             815            1665     7.99140E-03     7.63222E-03
             815            1666     7.81080E-03     8.05658E-03
             815            1683     6.92243E-03     7.70752E-03
             815            1684     6.99986E-03     7.83684E-03
             816            1666     7.81080E-03     8.05658E-03
             816            1667     7.89044E-03     8.39145E-03
             816            1684     6.99986E-03     7.83684E-03
             816            1685     7.22520E-03     8.07504E-03
             817            1667     7.89044E-03     8.39145E-03
             817            1668     8.11374E-03     8.75694E-03
             817            1685     7.22520E-03     8.07504E-03
             817            1686     7.45944E-03     8.50286E-03
             818            1668     8.11374E-03     8.75694E-03
             818            1669     8.40042E-03     9.21576E-03
             818            1686     7.45944E-03     8.50286E-03
             818            1687     7.75253E-03     8.99488E-03
             819            1669     8.40042E-03     9.21576E-03
             819            1670     8.76641E-03     9.71694E-03
             819            1687     7.75253E-03     8.99488E-03
             819            1688     8.11793E-03     9.54108E-03
             820            1670     8.76641E-03     9.71694E-03
             820            1671     9.20090E-03     10.2630E-03
             820            1688     8.11793E-03     9.54108E-03
             820            1689     8.54817E-03     10.1288E-03
             821            1671     9.20090E-03     10.2630E-03
             821            1672     9.69788E-03     10.8509E-03
             821            1689     8.54817E-03     10.1288E-03
             821            1690     9.03955E-03     10.7433E-03
             822            1672     9.69788E-03     10.8509E-03
             822            1673     10.2431E-03     11.4704E-03
             822            1690     9.03955E-03     10.7433E-03
             822            1691     9.57911E-03     11.3871E-03
             823            1673     10.2431E-03     11.4704E-03
             823            1674     10.8333E-03     12.1221E-03
             823            1691     9.57911E-03     11.3871E-03
             823            1692     10.1543E-03     12.0451E-03
             824            1674     10.8333E-03     12.1221E-03
             824            1675     11.4527E-03     12.7941E-03
             824            1692     10.1543E-03     12.0451E-03
             824            1693     10.7575E-03     12.7195E-03
             825            1675     11.4527E-03     12.7941E-03
             825            1676     12.1051E-03     13.4892E-03
             825            1693     10.7575E-03     12.7195E-03
             825            1694     11.3733E-03     13.3948E-03
             826            1676     12.1051E-03     13.4892E-03
             826            1677     12.7702E-03     14.1992E-03
             826            1694     11.3733E-03     13.3948E-03
             826            1695     12.0056E-03     14.0827E-03
             827            1677     12.7702E-03     14.1992E-03
             827            1678     13.4733E-03     14.9377E-03
             827            1695     12.0056E-03     14.0827E-03
             827            1696     12.6531E-03     14.7797E-03
             828            1678     13.4733E-03     14.9377E-03
             828            1679     14.2028E-03     15.7202E-03
             828            1696     12.6531E-03     14.7797E-03
             828            1697     13.3706E-03     15.5549E-03
             829            1679     14.2028E-03     15.7202E-03
             829            1680     15.0655E-03     16.6184E-03
             829            1697     13.3706E-03     15.5549E-03
             829            1698     14.2513E-03     16.4861E-03
             830            1680     15.0655E-03     16.6184E-03
             830            1681     16.2084E-03     17.7905E-03
             830            1698     14.2513E-03     16.4861E-03
             830            1699     15.6066E-03     17.9127E-03
             831            1681     16.2084E-03     17.7905E-03
             831            1682     18.1582E-03     19.6458E-03
             831            1699     15.6066E-03     17.9127E-03
             831            1700     17.8310E-03     20.2326E-03
             832             348     22.6129E-03     23.4729E-03
             832             349     22.4274E-03     24.9761E-03
             832            1682     18.1582E-03     19.6458E-03
             832            1700     17.8310E-03     20.2326E-03
             833             447     9.52342E-03     12.1255E-03
             833             448     6.95681E-03     7.62027E-03
             833            1683     6.92243E-03     7.70752E-03
             833            1701     10.2403E-03     11.8942E-03
             834            1683     6.92243E-03     7.70752E-03
             834            1684     6.99986E-03     7.83684E-03
             834            1701     10.2403E-03     11.8942E-03
             834            1702     11.2924E-03     11.7382E-03
             835            1684     6.99986E-03     7.83684E-03
             835            1685     7.22520E-03     8.07504E-03
             835            1702     11.2924E-03     11.7382E-03
             835            1703     11.9943E-03     12.2191E-03
             836            1685     7.22520E-03     8.07504E-03
             836            1686     7.45944E-03     8.50286E-03
             836            1703     11.9943E-03     12.2191E-03
             836            1704     12.7981E-03     13.0601E-03
             837            1686     7.45944E-03     8.50286E-03
             837            1687     7.75253E-03     8.99488E-03
             837            1704     12.7981E-03     13.0601E-03
             837            1705     13.7222E-03     14.0367E-03
             838            1687     7.75253E-03     8.99488E-03
             838            1688     8.11793E-03     9.54108E-03
             838            1705     13.7222E-03     14.0367E-03
             838            1706     14.7491E-03     15.1385E-03
             839            1688     8.11793E-03     9.54108E-03
             839            1689     8.54817E-03     10.1288E-03
             839            1706     14.7491E-03     15.1385E-03
             839            1707     15.8787E-03     16.3170E-03
             840            1689     8.54817E-03     10.1288E-03
             840            1690     9.03955E-03     10.7433E-03
             840            1707     15.8787E-03     16.3170E-03
             840            1708     17.0669E-03     17.5473E-03
             841            1690     9.03955E-03     10.7433E-03
             841            1691     9.57911E-03     11.3871E-03
             841            1708     17.0669E-03     17.5473E-03
             841            1709     18.3094E-03     18.8145E-03
             842            1691     9.57911E-03     11.3871E-03
             842            1692     10.1543E-03     12.0451E-03
             842            1709     18.3094E-03     18.8145E-03
             842            1710     19.5666E-03     20.0875E-03
             843            1692     10.1543E-03     12.0451E-03
             843            1693     10.7575E-03     12.7195E-03
             843            1710     19.5666E-03     20.0875E-03
             843            1711     20.8320E-03     21.3566E-03
             844            1693     10.7575E-03     12.7195E-03
             844            1694     11.3733E-03     13.3948E-03
             844            1711     20.8320E-03     21.3566E-03
             844            1712     22.0656E-03     22.5855E-03
             845            1694     11.3733E-03     13.3948E-03
             845            1695     12.0056E-03     14.0827E-03
             845            1712     22.0656E-03     22.5855E-03
             845            1713     23.2594E-03     23.7587E-03
             846            1695     12.0056E-03     14.0827E-03
             846            1696     12.6531E-03     14.7797E-03
             846            1713     23.2594E-03     23.7587E-03
             846            1714     24.3742E-03     24.8423E-03
             847            1696     12.6531E-03     14.7797E-03
             847            1697     13.3706E-03     15.5549E-03
             847            1714     24.3742E-03     24.8423E-03
             847            1715     25.4082E-03     25.8248E-03
             848            1697     13.3706E-03     15.5549E-03
             848            1698     14.2513E-03     16.4861E-03
             848            1715     25.4082E-03     25.8248E-03
             848            1716     26.3763E-03     26.7105E-03
             849            1698     14.2513E-03     16.4861E-03
             849            1699     15.6066E-03     17.9127E-03
             849            1716     26.3763E-03     26.7105E-03
             849            1717     27.3083E-03     27.5773E-03
             850            1699     15.6066E-03     17.9127E-03
             850            1700     17.8310E-03     20.2326E-03
             850            1717     27.3083E-03     27.5773E-03
             850            1718     28.4530E-03     28.6007E-03
             851             349     22.4274E-03     24.9761E-03
             851             350     29.8224E-03     30.1202E-03
             851            1700     17.8310E-03     20.2326E-03
             851            1718     28.4530E-03     28.6007E-03
             852             446     13.3424E-03     15.8807E-03
             852             447     9.52342E-03     12.1255E-03
             852            1701     10.2403E-03     11.8942E-03
             852            1719     13.7557E-03     15.6224E-03
             853            1701     10.2403E-03     11.8942E-03
             853            1702     11.2924E-03     11.7382E-03
             853            1719     13.7557E-03     15.6224E-03
             853            1720     14.8383E-03     15.4533E-03
             854            1702     11.2924E-03     11.7382E-03
             854            1703     11.9943E-03     12.2191E-03
             854            1720     14.8383E-03     15.4533E-03
             854            1721     16.2455E-03     16.0541E-03
             855            1703     11.9943E-03     12.2191E-03
             855            1704     12.7981E-03     13.0601E-03
             855            1721     16.2455E-03     16.0541E-03
             855            1722     17.7602E-03     17.2570E-03
             856            1704     12.7981E-03     13.0601E-03
             856            1705     13.7222E-03     14.0367E-03
             856            1722     17.7602E-03     17.2570E-03
             856            1723     19.4166E-03     18.7615E-03
             857            1705     13.7222E-03     14.0367E-03
             857            1706     14.7491E-03     15.1385E-03
             857            1723     19.4166E-03     18.7615E-03
             857            1724     21.2243E-03     20.4743E-03
             858            1706     14.7491E-03     15.1385E-03
             858            1707     15.8787E-03     16.3170E-03
             858            1724     21.2243E-03     20.4743E-03
             858            1725     23.1361E-03     22.3242E-03
             859            1707     15.8787E-03     16.3170E-03
             859            1708     17.0669E-03     17.5473E-03
             859            1725     23.1361E-03     22.3242E-03
             859            1726     25.1329E-03     24.2646E-03
             860            1708     17.0669E-03     17.5473E-03
             860            1709     18.3094E-03     18.8145E-03
             860            1726     25.1329E-03     24.2646E-03
             860            1727     27.1764E-03     26.2595E-03
             861            1709     18.3094E-03     18.8145E-03
             861            1710     19.5666E-03     20.0875E-03
             861            1727     27.1764E-03     26.2595E-03
             861            1728     29.2467E-03     28.2761E-03
             862            1710     19.5666E-03     20.0875E-03
             862            1711     20.8320E-03     21.3566E-03
             862            1728     29.2467E-03     28.2761E-03
             862            1729     31.3073E-03     30.2847E-03
             863            1711     20.8320E-03     21.3566E-03
             863            1712     22.0656E-03     22.5855E-03
             863            1729     31.3073E-03     30.2847E-03
             863            1730     33.3342E-03     32.2443E-03
             864            1712     22.0656E-03     22.5855E-03
             864            1713     23.2594E-03     23.7587E-03
             864            1730     33.3342E-03     32.2443E-03
             864            1731     35.2744E-03     34.1155E-03
             865            1713     23.2594E-03     23.7587E-03
             865            1714     24.3742E-03     24.8423E-03
             865            1731     35.2744E-03     34.1155E-03
             865            1732     37.0805E-03     35.8262E-03
             866            1714     24.3742E-03     24.8423E-03
             866            1715     25.4082E-03     25.8248E-03
             866            1732     37.0805E-03     35.8262E-03
             866            1733     38.6587E-03     37.2998E-03
             867            1715     25.4082E-03     25.8248E-03
             867            1716     26.3763E-03     26.7105E-03
             867            1733     38.6587E-03     37.2998E-03
             867            1734     39.8962E-03     38.4096E-03
             868            1716     26.3763E-03     26.7105E-03
             868            1717     27.3083E-03     27.5773E-03
             868            1734     39.8962E-03     38.4096E-03
             868            1735     40.5970E-03     38.9682E-03
             869            1717     27.3083E-03     27.5773E-03
             869            1718     28.4530E-03     28.6007E-03
             869            1735     40.5970E-03     38.9682E-03
             869            1736     40.5113E-03     38.7718E-03
             870             350     29.8224E-03     30.1202E-03
             870             351     38.9151E-03     37.1774E-03
             870            1718     28.4530E-03     28.6007E-03
             870            1736     40.5113E-03     38.7718E-03
             871             445     12.9280E-03     13.0761E-03
             871             446     13.3424E-03     15.8807E-03
             871            1719     13.7557E-03     15.6224E-03
             871            1737     12.8441E-03     13.5670E-03
             872            1719     13.7557E-03     15.6224E-03
             872            1720     14.8383E-03     15.4533E-03
             872            1737     12.8441E-03     13.5670E-03
             872            1738     13.3104E-03     14.3135E-03
             873            1720     14.8383E-03     15.4533E-03
             873            1721     16.2455E-03     16.0541E-03
             873            1738     13.3104E-03     14.3135E-03
             873            1739     14.6986E-03     15.0738E-03
             874            1721     16.2455E-03     16.0541E-03
             874            1722     17.7602E-03     17.2570E-03
             874            1739     14.6986E-03     15.0738E-03
             874            1740     16.4221E-03     16.3397E-03
             875            1722     17.7602E-03     17.2570E-03
             875            1723     19.4166E-03     18.7615E-03
             875            1740     16.4221E-03     16.3397E-03
             875            1741     18.2807E-03     17.9891E-03
             876            1723     19.4166E-03     18.7615E-03
             876            1724     21.2243E-03     20.4743E-03
             876            1741     18.2807E-03     17.9891E-03
             876            1742     20.2783E-03     19.8666E-03
             877            1724     21.2243E-03     20.4743E-03
             877            1725     23.1361E-03     22.3242E-03
             877            1742     20.2783E-03     19.8666E-03
             877            1743     22.3777E-03     21.9056E-03
             878            1725     23.1361E-03     22.3242E-03
             878            1726     25.1329E-03     24.2646E-03
             878            1743     22.3777E-03     21.9056E-03
             878            1744     24.5596E-03     24.0482E-03
             879            1726     25.1329E-03     24.2646E-03
             879            1727     27.1764E-03     26.2595E-03
             879            1744     24.5596E-03     24.0482E-03
             879            1745     26.8040E-03     26.2632E-03
             880            1727     27.1764E-03     26.2595E-03
             880            1728     29.2467E-03     28.2761E-03
             880            1745     26.8040E-03     26.2632E-03
             880            1746     29.0889E-03     28.5235E-03
             881            1728     29.2467E-03     28.2761E-03
             881            1729     31.3073E-03     30.2847E-03
             881            1746     29.0889E-03     28.5235E-03
             881            1747     31.3998E-03     30.8059E-03
             882            1729     31.3073E-03     30.2847E-03
             882            1730     33.3342E-03     32.2443E-03
             882            1747     31.3998E-03     30.8059E-03
             882            1748     33.7029E-03     33.0857E-03
             883            1730     33.3342E-03     32.2443E-03
             883            1731     35.2744E-03     34.1155E-03
             883            1748     33.7029E-03     33.0857E-03
             883            1749     35.9731E-03     35.3235E-03
             884            1731     35.2744E-03     34.1155E-03
             884            1732     37.0805E-03     35.8262E-03
             884            1749     35.9731E-03     35.3235E-03
             884            1750     38.1374E-03     37.4711E-03
             885            1732     37.0805E-03     35.8262E-03
             885            1733     38.6587E-03     37.2998E-03
             885            1750     38.1374E-03     37.4711E-03
             885            1751     40.1141E-03     39.4329E-03
             886            1733     38.6587E-03     37.2998E-03
             886            1734     39.8962E-03     38.4096E-03
             886            1751     40.1141E-03     39.4329E-03
             886            1752     41.7450E-03     41.0884E-03
             887            1734     39.8962E-03     38.4096E-03
             887            1735     40.5970E-03     38.9682E-03
             887            1752     41.7450E-03     41.0884E-03
             887            1753     42.7773E-03     42.2198E-03
             888            1735     40.5970E-03     38.9682E-03
             888            1736     40.5113E-03     38.7718E-03
             888            1753     42.7773E-03     42.2198E-03
             888            1754     42.9173E-03     42.5553E-03
             889             351     38.9151E-03     37.1774E-03
             889             352     41.5015E-03     41.5760E-03
             889            1736     40.5113E-03     38.7718E-03
             889            1754     42.9173E-03     42.5553E-03
             890             444     11.3082E-03     10.8465E-03
             890             445     12.9280E-03     13.0761E-03
             890            1737     12.8441E-03     13.5670E-03
             890            1755     11.5475E-03     11.4075E-03
             891            1737     12.8441E-03     13.5670E-03
             891            1738     13.3104E-03     14.3135E-03
             891            1755     11.5475E-03     11.4075E-03
             891            1756     12.2248E-03     12.6509E-03
             892            1738     13.3104E-03     14.3135E-03
             892            1739     14.6986E-03     15.0738E-03
             892            1756     12.2248E-03     12.6509E-03
             892            1757     13.4565E-03     13.9915E-03
             893            1739     14.6986E-03     15.0738E-03
             893            1740     16.4221E-03     16.3397E-03
             893            1757     13.4565E-03     13.9915E-03
             893            1758     15.2319E-03     15.4986E-03
             894            1740     16.4221E-03     16.3397E-03
             894            1741     18.2807E-03     17.9891E-03
             894            1758     15.2319E-03     15.4986E-03
             894            1759     17.2546E-03     17.3302E-03
             895            1741     18.2807E-03     17.9891E-03
             895            1742     20.2783E-03     19.8666E-03
             895            1759     17.2546E-03     17.3302E-03
             895            1760     19.4109E-03     19.3840E-03
             896            1742     20.2783E-03     19.8666E-03
             896            1743     22.3777E-03     21.9056E-03
             896            1760     19.4109E-03     19.3840E-03
             896            1761     21.6767E-03     21.5924E-03
             897            1743     22.3777E-03     21.9056E-03
             897            1744     24.5596E-03     24.0482E-03
             897            1761     21.6767E-03     21.5924E-03
             897            1762     24.0204E-03     23.9106E-03
             898            1744     24.5596E-03     24.0482E-03
             898            1745     26.8040E-03     26.2632E-03
             898            1762     24.0204E-03     23.9106E-03
             898            1763     26.4297E-03     26.3068E-03
             899            1745     26.8040E-03     26.2632E-03
             899            1746     29.0889E-03     28.5235E-03
             899            1763     26.4297E-03     26.3068E-03
             899            1764     28.8914E-03     28.7626E-03
             900            1746     29.0889E-03     28.5235E-03
             900            1747     31.3998E-03     30.8059E-03
             900            1764     28.8914E-03     28.7626E-03
             900            1765     31.3885E-03     31.2606E-03
             901            1747     31.3998E-03     30.8059E-03
             901            1748     33.7029E-03     33.0857E-03
             901            1765     31.3885E-03     31.2606E-03
             901            1766     33.9093E-03     33.7836E-03
             902            1748     33.7029E-03     33.0857E-03
             902            1749     35.9731E-03     35.3235E-03
             902            1766     33.9093E-03     33.7836E-03
             902            1767     36.4117E-03     36.3049E-03
             903            1749     35.9731E-03     35.3235E-03
             903            1750     38.1374E-03     37.4711E-03
             903            1767     36.4117E-03     36.3049E-03
             903            1768     38.8591E-03     38.7772E-03
             904            1750     38.1374E-03     37.4711E-03
             904            1751     40.1141E-03     39.4329E-03
             904            1768     38.8591E-03     38.7772E-03
             904            1769     41.1402E-03     41.1288E-03
             905            1751     40.1141E-03     39.4329E-03
             905            1752     41.7450E-03     41.0884E-03
             905            1769     41.1402E-03     41.1288E-03
             905            1770     43.1052E-03     43.2060E-03
             906            1752     41.7450E-03     41.0884E-03
             906            1753     42.7773E-03     42.2198E-03
             906            1770     43.1052E-03     43.2060E-03
             906            1771     44.5516E-03     44.8367E-03
             907            1753     42.7773E-03     42.2198E-03
             907            1754     42.9173E-03     42.5553E-03
             907            1771     44.5516E-03     44.8367E-03
             907            1772     45.0914E-03     45.6869E-03
             908             352     41.5015E-03     41.5760E-03
             908             353     45.1438E-03     45.8475E-03
             908            1754     42.9173E-03     42.5553E-03
             908            1772     45.0914E-03     45.6869E-03
             909             443     9.91385E-03     9.54626E-03
             909             444     11.3082E-03     10.8465E-03
             909            1755     11.5475E-03     11.4075E-03
             909            1773     10.1535E-03     9.96047E-03
             910            1755     11.5475E-03     11.4075E-03
             910            1756     12.2248E-03     12.6509E-03
             910            1773     10.1535E-03     9.96047E-03
             910            1774     10.9766E-03     11.1481E-03
             911            1756     12.2248E-03     12.6509E-03
             911            1757     13.4565E-03     13.9915E-03
             911            1774     10.9766E-03     11.1481E-03
             911            1775     12.3670E-03     12.8252E-03
             912            1757     13.4565E-03     13.9915E-03
             912            1758     15.2319E-03     15.4986E-03
             912            1775     12.3670E-03     12.8252E-03
             912            1776     14.1821E-03     14.6908E-03
             913            1758     15.2319E-03     15.4986E-03
             913            1759     17.2546E-03     17.3302E-03
             913            1776     14.1821E-03     14.6908E-03
             913            1777     16.3087E-03     16.7314E-03
             914            1759     17.2546E-03     17.3302E-03
             914            1760     19.4109E-03     19.3840E-03
             914            1777     16.3087E-03     16.7314E-03
             914            1778     18.5961E-03     18.9598E-03
             915            1760     19.4109E-03     19.3840E-03
             915            1761     21.6767E-03     21.5924E-03
             915            1778     18.5961E-03     18.9598E-03
             915            1779     20.9853E-03     21.3159E-03
             916            1761     21.6767E-03     21.5924E-03
             916            1762     24.0204E-03     23.9106E-03
             916            1779     20.9853E-03     21.3159E-03
             916            1780     23.4532E-03     23.7704E-03
             917            1762     24.0204E-03     23.9106E-03
             917            1763     26.4297E-03     26.3068E-03
             917            1780     23.4532E-03     23.7704E-03
             917            1781     25.9811E-03     26.2994E-03
             918            1763     26.4297E-03     26.3068E-03
             918            1764     28.8914E-03     28.7626E-03
             918            1781     25.9811E-03     26.2994E-03
             918            1782     28.5607E-03     28.8887E-03
             919            1764     28.8914E-03     28.7626E-03
             919            1765     31.3885E-03     31.2606E-03
             919            1782     28.5607E-03     28.8887E-03
             919            1783     31.1841E-03     31.5296E-03
             920            1765     31.3885E-03     31.2606E-03
             920            1766     33.9093E-03     33.7836E-03
             920            1783     31.1841E-03     31.5296E-03
             920            1784     33.8354E-03     34.2097E-03
             921            1766     33.9093E-03     33.7836E-03
             921            1767     36.4117E-03     36.3049E-03
             921            1784     33.8354E-03     34.2097E-03
             921            1785     36.5036E-03     36.9168E-03
             922            1767     36.4117E-03     36.3049E-03
             922            1768     38.8591E-03     38.7772E-03
             922            1785     36.5036E-03     36.9168E-03
             922            1786     39.1362E-03     39.6173E-03
             923            1768     38.8591E-03     38.7772E-03
             923            1769     41.1402E-03     41.1288E-03
             923            1786     39.1362E-03     39.6173E-03
             923            1787     41.6916E-03     42.2546E-03
             924            1769     41.1402E-03     41.1288E-03
             924            1770     43.1052E-03     43.2060E-03
             924            1787     41.6916E-03     42.2546E-03
             924            1788     44.0276E-03     44.7348E-03
             925            1770     43.1052E-03     43.2060E-03
             925            1771     44.5516E-03     44.8367E-03
             925            1788     44.0276E-03     44.7348E-03
             925            1789     45.9756E-03     46.8548E-03
             926            1771     44.5516E-03     44.8367E-03
             926            1772     45.0914E-03     45.6869E-03
             926            1789     45.9756E-03     46.8548E-03
             926            1790     47.5138E-03     48.4963E-03
             927             353     45.1438E-03     45.8475E-03
             927             354     48.9812E-03     49.9006E-03
             927            1772     45.0914E-03     45.6869E-03
             927            1790     47.5138E-03     48.4963E-03
             928             442     8.52909E-03     7.81516E-03
             928             443     9.91385E-03     9.54626E-03
             928            1773     10.1535E-03     9.96047E-03
             928            1791     8.80785E-03     8.46068E-03
             929            1773     10.1535E-03     9.96047E-03
             929            1774     10.9766E-03     11.1481E-03
             929            1791     8.80785E-03     8.46068E-03
             929            1792     9.71818E-03     9.93397E-03
             930            1774     10.9766E-03     11.1481E-03
             930            1775     12.3670E-03     12.8252E-03
             930            1792     9.71818E-03     9.93397E-03
             930            1793     11.2513E-03     11.7833E-03
             931            1775     12.3670E-03     12.8252E-03
             931            1776     14.1821E-03     14.6908E-03
             931            1793     11.2513E-03     11.7833E-03
             931            1794     13.2038E-03     13.9107E-03
             932            1776     14.1821E-03     14.6908E-03
             932            1777     16.3087E-03     16.7314E-03
             932            1794     13.2038E-03     13.9107E-03
             932            1795     15.4150E-03     16.1753E-03
             933            1777     16.3087E-03     16.7314E-03
             933            1778     18.5961E-03     18.9598E-03
             933            1795     15.4150E-03     16.1753E-03
             933            1796     17.7963E-03     18.5530E-03
             934            1778     18.5961E-03     18.9598E-03
             934            1779     20.9853E-03     21.3159E-03
             934            1796     17.7963E-03     18.5530E-03
             934            1797     20.2747E-03     21.0304E-03
             935            1779     20.9853E-03     21.3159E-03
             935            1780     23.4532E-03     23.7704E-03
             935            1797     20.2747E-03     21.0304E-03
             935            1798     22.8207E-03     23.5801E-03
             936            1780     23.4532E-03     23.7704E-03
             936            1781     25.9811E-03     26.2994E-03
             936            1798     22.8207E-03     23.5801E-03
             936            1799     25.4202E-03     26.1913E-03
             937            1781     25.9811E-03     26.2994E-03
             937            1782     28.5607E-03     28.8887E-03
             937            1799     25.4202E-03     26.1913E-03
             937            1800     28.0633E-03     28.8546E-03
             938            1782     28.5607E-03     28.8887E-03
             938            1783     31.1841E-03     31.5296E-03
             938            1800     28.0633E-03     28.8546E-03
             938            1801     30.7468E-03     31.5651E-03
             939            1783     31.1841E-03     31.5296E-03
             939            1784     33.8354E-03     34.2097E-03
             939            1801     30.7468E-03     31.5651E-03
             939            1802     33.4665E-03     34.3243E-03
             940            1784     33.8354E-03     34.2097E-03
             940            1785     36.5036E-03     36.9168E-03
             940            1802     33.4665E-03     34.3243E-03
             940            1803     36.2139E-03     37.1236E-03
             941            1785     36.5036E-03     36.9168E-03
             941            1786     39.1362E-03     39.6173E-03
             941            1803     36.2139E-03     37.1236E-03
             941            1804     38.9892E-03     39.9658E-03
             942            1786     39.1362E-03     39.6173E-03
             942            1787     41.6916E-03     42.2546E-03
             942            1804     38.9892E-03     39.9658E-03
             942            1805     41.7498E-03     42.8184E-03
             943            1787     41.6916E-03     42.2546E-03
             943            1788     44.0276E-03     44.7348E-03
             943            1805     41.7498E-03     42.8184E-03
             943            1806     44.5186E-03     45.6586E-03
             944            1788     44.0276E-03     44.7348E-03
             944            1789     45.9756E-03     46.8548E-03
             944            1806     44.5186E-03     45.6586E-03
             944            1807     47.1820E-03     48.4180E-03
             945            1789     45.9756E-03     46.8548E-03
             945            1790     47.5138E-03     48.4963E-03
             945            1807     47.1820E-03     48.4180E-03
             945            1808     49.8043E-03     51.0277E-03
             946             354     48.9812E-03     49.9006E-03
             946             355     52.6494E-03     53.6151E-03
             946            1790     47.5138E-03     48.4963E-03
             946            1808     49.8043E-03     51.0277E-03
             947             441     7.00576E-03     6.48060E-03
             947             442     8.52909E-03     7.81516E-03
             947            1791     8.80785E-03     8.46068E-03
             947            1809     7.36927E-03     7.13022E-03
             948            1791     8.80785E-03     8.46068E-03
             948            1792     9.71818E-03     9.93397E-03
             948            1809     7.36927E-03     7.13022E-03
             948            1810     8.45784E-03     8.79176E-03
             949            1792     9.71818E-03     9.93397E-03
             949            1793     11.2513E-03     11.7833E-03
             949            1810     8.45784E-03     8.79176E-03
             949            1811     10.1484E-03     10.9123E-03
             950            1793     11.2513E-03     11.7833E-03
             950            1794     13.2038E-03     13.9107E-03
             950            1811     10.1484E-03     10.9123E-03
             950            1812     12.2317E-03     13.2207E-03
             951            1794     13.2038E-03     13.9107E-03
             951            1795     15.4150E-03     16.1753E-03
             951            1812     12.2317E-03     13.2207E-03
             951            1813     14.5451E-03     15.6567E-03
             952            1795     15.4150E-03     16.1753E-03
             952            1796     17.7963E-03     18.5530E-03
             952            1813     14.5451E-03     15.6567E-03
             952            1814     16.9934E-03     18.1599E-03
             953            1796     17.7963E-03     18.5530E-03
             953            1797     20.2747E-03     21.0304E-03
             953            1814     16.9934E-03     18.1599E-03
             953            1815     19.5281E-03     20.7201E-03
             954            1797     20.2747E-03     21.0304E-03
             954            1798     22.8207E-03     23.5801E-03
             954            1815     19.5281E-03     20.7201E-03
             954            1816     22.1165E-03     23.3289E-03
             955            1798     22.8207E-03     23.5801E-03
             955            1799     25.4202E-03     26.1913E-03
             955            1816     22.1165E-03     23.3289E-03
             955            1817     24.7440E-03     25.9764E-03
             956            1799     25.4202E-03     26.1913E-03
             956            1800     28.0633E-03     28.8546E-03
             956            1817     24.7440E-03     25.9764E-03
             956            1818     27.4062E-03     28.6612E-03
             957            1800     28.0633E-03     28.8546E-03
             957            1801     30.7468E-03     31.5651E-03
             957            1818     27.4062E-03     28.6612E-03
             957            1819     30.0983E-03     31.3840E-03
             958            1801     30.7468E-03     31.5651E-03
             958            1802     33.4665E-03     34.3243E-03
             958            1819     30.0983E-03     31.3840E-03
             958            1820     32.8280E-03     34.1488E-03
             959            1802     33.4665E-03     34.3243E-03
             959            1803     36.2139E-03     37.1236E-03
             959            1820     32.8280E-03     34.1488E-03
             959            1821     35.6008E-03     36.9726E-03
             960            1803     36.2139E-03     37.1236E-03
             960            1804     38.9892E-03     39.9658E-03
             960            1821     35.6008E-03     36.9726E-03
             960            1822     38.4368E-03     39.8626E-03
             961            1804     38.9892E-03     39.9658E-03
             961            1805     41.7498E-03     42.8184E-03
             961            1822     38.4368E-03     39.8626E-03
             961            1823     41.3849E-03     42.8689E-03
             962            1805     41.7498E-03     42.8184E-03
             962            1806     44.5186E-03     45.6586E-03
             962            1823     41.3849E-03     42.8689E-03
             962            1824     44.4677E-03     46.0002E-03
             963            1806     44.5186E-03     45.6586E-03
             963            1807     47.1820E-03     48.4180E-03
             963            1824     44.4677E-03     46.0002E-03
             963            1825     47.9534E-03     49.3981E-03
             964            1807     47.1820E-03     48.4180E-03
             964            1808     49.8043E-03     51.0277E-03
             964            1825     47.9534E-03     49.3981E-03
             964            1826     51.7623E-03     53.1117E-03
             965             355     52.6494E-03     53.6151E-03
             965             356     55.9189E-03     57.1421E-03
             965            1808     49.8043E-03     51.0277E-03
             965            1826     51.7623E-03     53.1117E-03
             966             440     5.52168E-03     5.01218E-03
             966             441     7.00576E-03     6.48060E-03
             966            1809     7.36927E-03     7.13022E-03
             966            1827     5.92991E-03     5.87596E-03
             967            1809     7.36927E-03     7.13022E-03
             967            1810     8.45784E-03     8.79176E-03
             967            1827     5.92991E-03     5.87596E-03
             967            1828     7.17408E-03     7.83535E-03
             968            1810     8.45784E-03     8.79176E-03
             968            1811     10.1484E-03     10.9123E-03
             968            1828     7.17408E-03     7.83535E-03
             968            1829     9.06125E-03     10.1665E-03
             969            1811     10.1484E-03     10.9123E-03
             969            1812     12.2317E-03     13.2207E-03
             969            1829     9.06125E-03     10.1665E-03
             969            1830     11.2788E-03     12.6578E-03
             970            1812     12.2317E-03     13.2207E-03
             970            1813     14.5451E-03     15.6567E-03
             970            1830     11.2788E-03     12.6578E-03
             970            1831     13.6822E-03     15.2032E-03
             971            1813     14.5451E-03     15.6567E-03
             971            1814     16.9934E-03     18.1599E-03
             971            1831     13.6822E-03     15.2032E-03
             971            1832     16.1873E-03     17.7912E-03
             972            1814     16.9934E-03     18.1599E-03
             972            1815     19.5281E-03     20.7201E-03
             972            1832     16.1873E-03     17.7912E-03
             972            1833     18.7517E-03     20.4021E-03
             973            1815     19.5281E-03     20.7201E-03
             973            1816     22.1165E-03     23.3289E-03
             973            1833     18.7517E-03     20.4021E-03
             973            1834     21.3535E-03     23.0331E-03
             974            1816     22.1165E-03     23.3289E-03
             974            1817     24.7440E-03     25.9764E-03
             974            1834     21.3535E-03     23.0331E-03
             974            1835     23.9809E-03     25.6831E-03
             975            1817     24.7440E-03     25.9764E-03
             975            1818     27.4062E-03     28.6612E-03
             975            1835     23.9809E-03     25.6831E-03
             975            1836     26.6267E-03     28.3501E-03
             976            1818     27.4062E-03     28.6612E-03
             976            1819     30.0983E-03     31.3840E-03
             976            1836     26.6267E-03     28.3501E-03
             976            1837     29.2969E-03     31.0405E-03
             977            1819     30.0983E-03     31.3840E-03
             977            1820     32.8280E-03     34.1488E-03
             977            1837     29.2969E-03     31.0405E-03
             977            1838     31.9934E-03     33.7655E-03
             978            1820     32.8280E-03     34.1488E-03
             978            1821     35.6008E-03     36.9726E-03
             978            1838     31.9934E-03     33.7655E-03
             978            1839     34.7479E-03     36.5457E-03
             979            1821     35.6008E-03     36.9726E-03
             979            1822     38.4368E-03     39.8626E-03
             979            1839     34.7479E-03     36.5457E-03
             979            1840     37.5898E-03     39.4286E-03
             980            1822     38.4368E-03     39.8626E-03
             980            1823     41.3849E-03     42.8689E-03
             980            1840     37.5898E-03     39.4286E-03
             980            1841     40.6100E-03     42.4687E-03
             981            1823     41.3849E-03     42.8689E-03
             981            1824     44.4677E-03     46.0002E-03
             981            1841     40.6100E-03     42.4687E-03
             981            1842     43.9582E-03     45.8221E-03
             982            1824     44.4677E-03     46.0002E-03
             982            1825     47.9534E-03     49.3981E-03
             982            1842     43.9582E-03     45.8221E-03
             982            1843     47.8209E-03     49.6191E-03
             983            1825     47.9534E-03     49.3981E-03
             983            1826     51.7623E-03     53.1117E-03
             983            1843     47.8209E-03     49.6191E-03
             983            1844     52.9087E-03     54.3484E-03
             984             356     55.9189E-03     57.1421E-03
             984             357     58.9688E-03     60.0724E-03
             984            1826     51.7623E-03     53.1117E-03
             984            1844     52.9087E-03     54.3484E-03
             985             439     3.87930E-03     3.74714E-03
             985             440     5.52168E-03     5.01218E-03
             985            1827     5.92991E-03     5.87596E-03
             985            1845     4.42135E-03     4.78480E-03
             986            1827     5.92991E-03     5.87596E-03
             986            1828     7.17408E-03     7.83535E-03
             986            1845     4.42135E-03     4.78480E-03
             986            1846     5.91522E-03     7.08154E-03
             987            1828     7.17408E-03     7.83535E-03
             987            1829     9.06125E-03     10.1665E-03
             987            1846     5.91522E-03     7.08154E-03
             987            1847     8.00907E-03     9.62480E-03
             988            1829     9.06125E-03     10.1665E-03
             988            1830     11.2788E-03     12.6578E-03
             988            1847     8.00907E-03     9.62480E-03
             988            1848     10.3723E-03     12.2255E-03
             989            1830     11.2788E-03     12.6578E-03
             989            1831     13.6822E-03     15.2032E-03
             989            1848     10.3723E-03     12.2255E-03
             989            1849     12.8509E-03     14.8513E-03
             990            1831     13.6822E-03     15.2032E-03
             990            1832     16.1873E-03     17.7912E-03
             990            1849     12.8509E-03     14.8513E-03
             990            1850     15.3936E-03     17.4780E-03
             991            1832     16.1873E-03     17.7912E-03
             991            1833     18.7517E-03     20.4021E-03
             991            1850     15.3936E-03     17.4780E-03
             991            1851     17.9697E-03     20.1068E-03
             992            1833     18.7517E-03     20.4021E-03
             992            1834     21.3535E-03     23.0331E-03
             992            1851     17.9697E-03     20.1068E-03
             992            1852     20.5656E-03     22.7339E-03
             993            1834     21.3535E-03     23.0331E-03
             993            1835     23.9809E-03     25.6831E-03
             993            1852     20.5656E-03     22.7339E-03
             993            1853     23.1716E-03     25.3585E-03
             994            1835     23.9809E-03     25.6831E-03
             994            1836     26.6267E-03     28.3501E-03
             994            1853     23.1716E-03     25.3585E-03
             994            1854     25.7875E-03     27.9859E-03
             995            1836     26.6267E-03     28.3501E-03
             995            1837     29.2969E-03     31.0405E-03
             995            1854     25.7875E-03     27.9859E-03
             995            1855     28.4126E-03     30.6188E-03
             996            1837     29.2969E-03     31.0405E-03
             996            1838     31.9934E-03     33.7655E-03
             996            1855     28.4126E-03     30.6188E-03
             996            1856     31.0675E-03     33.2762E-03
             997            1838     31.9934E-03     33.7655E-03
             997            1839     34.7479E-03     36.5457E-03
             997            1856     31.0675E-03     33.2762E-03
             997            1857     33.7678E-03     35.9824E-03
             998            1839     34.7479E-03     36.5457E-03
             998            1840     37.5898E-03     39.4286E-03
             998            1857     33.7678E-03     35.9824E-03
             998            1858     36.5866E-03     38.7955E-03
             999            1840     37.5898E-03     39.4286E-03
             999            1841     40.6100E-03     42.4687E-03
             999            1858     36.5866E-03     38.7955E-03
             999            1859     39.5925E-03     41.8065E-03
            1000            1841     40.6100E-03     42.4687E-03
            1000            1842     43.9582E-03     45.8221E-03
            1000            1859     39.5925E-03     41.8065E-03
            1000            1860     43.0006E-03     45.1810E-03
            1001            1842     43.9582E-03     45.8221E-03
            1001            1843     47.8209E-03     49.6191E-03
            1001            1860     43.0006E-03     45.1810E-03
            1001            1861     47.0642E-03     49.2124E-03
            1002            1843     47.8209E-03     49.6191E-03
            1002            1844     52.9087E-03     54.3484E-03
            1002            1861     47.0642E-03     49.2124E-03
            1002            1862     52.3256E-03     54.3197E-03
            1003             357     58.9688E-03     60.0724E-03
            1003             358     60.4366E-03     61.7232E-03
            1003            1844     52.9087E-03     54.3484E-03
            1003            1862     52.3256E-03     54.3197E-03
            1004             438     2.13214E-03     2.76204E-03
            1004             439     3.87930E-03     3.74714E-03
            1004            1845     4.42135E-03     4.78480E-03
            1004            1863     2.87577E-03     4.03948E-03
            1005            1845     4.42135E-03     4.78480E-03
            1005            1846     5.91522E-03     7.08154E-03
            1005            1863     2.87577E-03     4.03948E-03
            1005            1864     4.74806E-03     6.64551E-03
            1006            1846     5.91522E-03     7.08154E-03
            1006            1847     8.00907E-03     9.62480E-03
            1006            1864     4.74806E-03     6.64551E-03
            1006            1865     7.09445E-03     9.31320E-03
            1007            1847     8.00907E-03     9.62480E-03
            1007            1848     10.3723E-03     12.2255E-03
            1007            1865     7.09445E-03     9.31320E-03
            1007            1866     9.56697E-03     11.9775E-03
            1008            1848     10.3723E-03     12.2255E-03
            1008            1849     12.8509E-03     14.8513E-03
            1008            1866     9.56697E-03     11.9775E-03
            1008            1867     12.0972E-03     14.6282E-03
            1009            1849     12.8509E-03     14.8513E-03
            1009            1850     15.3936E-03     17.4780E-03
            1009            1867     12.0972E-03     14.6282E-03
            1009            1868     14.6516E-03     17.2619E-03
            1010            1850     15.3936E-03     17.4780E-03
            1010            1851     17.9697E-03     20.1068E-03
            1010            1868     14.6516E-03     17.2619E-03
            1010            1869     17.2213E-03     19.8773E-03
            1011            1851     17.9697E-03     20.1068E-03
            1011            1852     20.5656E-03     22.7339E-03
            1011            1869     17.2213E-03     19.8773E-03
            1011            1870     19.7953E-03     22.4760E-03
            1012            1852     20.5656E-03     22.7339E-03
            1012            1853     23.1716E-03     25.3585E-03
            1012            1870     19.7953E-03     22.4760E-03
            1012            1871     22.3706E-03     25.0616E-03
            1013            1853     23.1716E-03     25.3585E-03
            1013            1854     25.7875E-03     27.9859E-03
            1013            1871     22.3706E-03     25.0616E-03
            1013            1872     24.9460E-03     27.6347E-03
            1014            1854     25.7875E-03     27.9859E-03
            1014            1855     28.4126E-03     30.6188E-03
            1014            1872     24.9460E-03     27.6347E-03
            1014            1873     27.5307E-03     30.2086E-03
            1015            1855     28.4126E-03     30.6188E-03
            1015            1856     31.0675E-03     33.2762E-03
            1015            1873     27.5307E-03     30.2086E-03
            1015            1874     30.1353E-03     32.7909E-03
            1016            1856     31.0675E-03     33.2762E-03
            1016            1857     33.7678E-03     35.9824E-03
            1016            1874     30.1353E-03     32.7909E-03
            1016            1875     32.8015E-03     35.4238E-03
            1017            1857     33.7678E-03     35.9824E-03
            1017            1858     36.5866E-03     38.7955E-03
            1017            1875     32.8015E-03     35.4238E-03
            1017            1876     35.5686E-03     38.1457E-03
            1018            1858     36.5866E-03     38.7955E-03
            1018            1859     39.5925E-03     41.8065E-03
            1018            1876     35.5686E-03     38.1457E-03
            1018            1877     38.5647E-03     41.0840E-03
            1019            1859     39.5925E-03     41.8065E-03
            1019            1860     43.0006E-03     45.1810E-03
            1019            1877     38.5647E-03     41.0840E-03
            1019            1878     41.8959E-03     44.3654E-03
            1020            1860     43.0006E-03     45.1810E-03
            1020            1861     47.0642E-03     49.2124E-03
            1020            1878     41.8959E-03     44.3654E-03
            1020            1879     45.9509E-03     48.3787E-03
            1021            1861     47.0642E-03     49.2124E-03
            1021            1862     52.3256E-03     54.3197E-03
            1021            1879     45.9509E-03     48.3787E-03
            1021            1880     51.0007E-03     53.4848E-03
            1022             358     60.4366E-03     61.7232E-03
            1022             359     58.6265E-03     61.2696E-03
            1022            1862     52.3256E-03     54.3197E-03
            1022            1880     51.0007E-03     53.4848E-03
            1023             437     9.25673E-03     12.2047E-03
            1023             438     2.13214E-03     2.76204E-03
            1023            1863     2.87577E-03     4.03948E-03
            1023            1881     10.5596E-03     12.7276E-03
            1024            1863     2.87577E-03     4.03948E-03
            1024            1864     4.74806E-03     6.64551E-03
            1024            1881     10.5596E-03     12.7276E-03
            1024            1882     13.0012E-03     14.2138E-03
            1025            1864     4.74806E-03     6.64551E-03
            1025            1865     7.09445E-03     9.31320E-03
            1025            1882     13.0012E-03     14.2138E-03
            1025            1883     15.3824E-03     16.4779E-03
            1026            1865     7.09445E-03     9.31320E-03
            1026            1866     9.56697E-03     11.9775E-03
            1026            1883     15.3824E-03     16.4779E-03
            1026            1884     17.9803E-03     19.1713E-03
            1027            1866     9.56697E-03     11.9775E-03
            1027            1867     12.0972E-03     14.6282E-03
            1027            1884     17.9803E-03     19.1713E-03
            1027            1885     20.7551E-03     22.0221E-03
            1028            1867     12.0972E-03     14.6282E-03
            1028            1868     14.6516E-03     17.2619E-03
            1028            1885     20.7551E-03     22.0221E-03
            1028            1886     23.6711E-03     24.9986E-03
            1029            1868     14.6516E-03     17.2619E-03
            1029            1869     17.2213E-03     19.8773E-03
            1029            1886     23.6711E-03     24.9986E-03
            1029            1887     26.6814E-03     28.0361E-03
            1030            1869     17.2213E-03     19.8773E-03
            1030            1870     19.7953E-03     22.4760E-03
            1030            1887     26.6814E-03     28.0361E-03
            1030            1888     29.7520E-03     31.1089E-03
            1031            1870     19.7953E-03     22.4760E-03
            1031            1871     22.3706E-03     25.0616E-03
            1031            1888     29.7520E-03     31.1089E-03
            1031            1889     32.8514E-03     34.1919E-03
            1032            1871     22.3706E-03     25.0616E-03
            1032            1872     24.9460E-03     27.6347E-03
            1032            1889     32.8514E-03     34.1919E-03
            1032            1890     35.9615E-03     37.2638E-03
            1033            1872     24.9460E-03     27.6347E-03
            1033            1873     27.5307E-03     30.2086E-03
            1033            1890     35.9615E-03     37.2638E-03
            1033            1891     39.0594E-03     40.3119E-03
            1034            1873     27.5307E-03     30.2086E-03
            1034            1874     30.1353E-03     32.7909E-03
            1034            1891     39.0594E-03     40.3119E-03
            1034            1892     42.1426E-03     43.3127E-03
            1035            1874     30.1353E-03     32.7909E-03
            1035            1875     32.8015E-03     35.4238E-03
            1035            1892     42.1426E-03     43.3127E-03
            1035            1893     45.1925E-03     46.2702E-03
            1036            1875     32.8015E-03     35.4238E-03
            1036            1876     35.5686E-03     38.1457E-03
            1036            1893     45.1925E-03     46.2702E-03
            1036            1894     48.2318E-03     49.1601E-03
            1037            1876     35.5686E-03     38.1457E-03
            1037            1877     38.5647E-03     41.0840E-03
            1037            1894     48.2318E-03     49.1601E-03
            1037            1895     51.2463E-03     52.0256E-03
            1038            1877     38.5647E-03     41.0840E-03
            1038            1878     41.8959E-03     44.3654E-03
            1038            1895     51.2463E-03     52.0256E-03
            1038            1896     54.3249E-03     54.8737E-03
            1039            1878     41.8959E-03     44.3654E-03
            1039            1879     45.9509E-03     48.3787E-03
            1039            1896     54.3249E-03     54.8737E-03
            1039            1897     57.4519E-03     57.8317E-03
            1040            1879     45.9509E-03     48.3787E-03
            1040            1880     51.0007E-03     53.4848E-03
            1040            1897     57.4519E-03     57.8317E-03
            1040            1898     60.9345E-03     61.1090E-03
            1041             359     58.6265E-03     61.2696E-03
            1041             360     64.7368E-03     65.0212E-03
            1041            1880     51.0007E-03     53.4848E-03
            1041            1898     60.9345E-03     61.1090E-03
            1042             436     17.3340E-03     21.0513E-03
            1042             437     9.25673E-03     12.2047E-03
            1042            1881     10.5596E-03     12.7276E-03
            1042            1899     18.1189E-03     20.8634E-03
            1043            1881     10.5596E-03     12.7276E-03
            1043            1882     13.0012E-03     14.2138E-03
            1043            1899     18.1189E-03     20.8634E-03
            1043            1900     20.1424E-03     21.2203E-03
            1044            1882     13.0012E-03     14.2138E-03
            1044            1883     15.3824E-03     16.4779E-03
            1044            1900     20.1424E-03     21.2203E-03
            1044            1901     22.8017E-03     22.9892E-03
            1045            1883     15.3824E-03     16.4779E-03
            1045            1884     17.9803E-03     19.1713E-03
            1045            1901     22.8017E-03     22.9892E-03
            1045            1902     25.7544E-03     25.7161E-03
            1046            1884     17.9803E-03     19.1713E-03
            1046            1885     20.7551E-03     22.0221E-03
            1046            1902     25.7544E-03     25.7161E-03
            1046            1903     28.9842E-03     28.9020E-03
            1047            1885     20.7551E-03     22.0221E-03
            1047            1886     23.6711E-03     24.9986E-03
            1047            1903     28.9842E-03     28.9020E-03
            1047            1904     32.4609E-03     32.3728E-03
            1048            1886     23.6711E-03     24.9986E-03
            1048            1887     26.6814E-03     28.0361E-03
            1048            1904     32.4609E-03     32.3728E-03
            1048            1905     36.0987E-03     36.0119E-03
            1049            1887     26.6814E-03     28.0361E-03
            1049            1888     29.7520E-03     31.1089E-03
            1049            1905     36.0987E-03     36.0119E-03
            1049            1906     39.8526E-03     39.7502E-03
            1050            1888     29.7520E-03     31.1089E-03
            1050            1889     32.8514E-03     34.1919E-03
            1050            1906     39.8526E-03     39.7502E-03
            1050            1907     43.6719E-03     43.5380E-03
            1051            1889     32.8514E-03     34.1919E-03
            1051            1890     35.9615E-03     37.2638E-03
            1051            1907     43.6719E-03     43.5380E-03
            1051            1908     47.5174E-03     47.3366E-03
            1052            1890     35.9615E-03     37.2638E-03
            1052            1891     39.0594E-03     40.3119E-03
            1052            1908     47.5174E-03     47.3366E-03
            1052            1909     51.3566E-03     51.1054E-03
            1053            1891     39.0594E-03     40.3119E-03
            1053            1892     42.1426E-03     43.3127E-03
            1053            1909     51.3566E-03     51.1054E-03
            1053            1910     55.1470E-03     54.8112E-03
            1054            1892     42.1426E-03     43.3127E-03
            1054            1893     45.1925E-03     46.2702E-03
            1054            1910     55.1470E-03     54.8112E-03
            1054            1911     58.8523E-03     58.3990E-03
            1055            1893     45.1925E-03     46.2702E-03
            1055            1894     48.2318E-03     49.1601E-03
            1055            1911     58.8523E-03     58.3990E-03
            1055            1912     62.4150E-03     61.8257E-03
            1056            1894     48.2318E-03     49.1601E-03
            1056            1895     51.2463E-03     52.0256E-03
            1056            1912     62.4150E-03     61.8257E-03
            1056            1913     65.7671E-03     65.0081E-03
            1057            1895     51.2463E-03     52.0256E-03
            1057            1896     54.3249E-03     54.8737E-03
            1057            1913     65.7671E-03     65.0081E-03
            1057            1914     68.8215E-03     67.8704E-03
            1058            1896     54.3249E-03     54.8737E-03
            1058            1897     57.4519E-03     57.8317E-03
            1058            1914     68.8215E-03     67.8704E-03
            1058            1915     71.4333E-03     70.2917E-03
            1059            1897     57.4519E-03     57.8317E-03
            1059            1898     60.9345E-03     61.1090E-03
            1059            1915     71.4333E-03     70.2917E-03
            1059            1916     73.4279E-03     72.1142E-03
            1060             360     64.7368E-03     65.0212E-03
            1060             361     74.3846E-03     73.0515E-03
            1060            1898     60.9345E-03     61.1090E-03
            1060            1916     73.4279E-03     72.1142E-03
            1061             435     16.0863E-03     16.9071E-03
            1061             436     17.3340E-03     21.0513E-03
            1061            1899     18.1189E-03     20.8634E-03
            1061            1917     16.2198E-03     17.8227E-03
            1062            1899     18.1189E-03     20.8634E-03
            1062            1900     20.1424E-03     21.2203E-03
            1062            1917     16.2198E-03     17.8227E-03
            1062            1918     17.5789E-03     19.4967E-03
            1063            1900     20.1424E-03     21.2203E-03
            1063            1901     22.8017E-03     22.9892E-03
            1063            1918     17.5789E-03     19.4967E-03
            1063            1919     20.4661E-03     21.5194E-03
            1064            1901     22.8017E-03     22.9892E-03
            1064            1902     25.7544E-03     25.7161E-03
            1064            1919     20.4661E-03     21.5194E-03
            1064            1920     23.8914E-03     24.4222E-03
            1065            1902     25.7544E-03     25.7161E-03
            1065            1903     28.9842E-03     28.9020E-03
            1065            1920     23.8914E-03     24.4222E-03
            1065            1921     27.5456E-03     27.8783E-03
            1066            1903     28.9842E-03     28.9020E-03
            1066            1904     32.4609E-03     32.3728E-03
            1066            1921     27.5456E-03     27.8783E-03
            1066            1922     31.3958E-03     31.6366E-03
            1067            1904     32.4609E-03     32.3728E-03
            1067            1905     36.0987E-03     36.0119E-03
            1067            1922     31.3958E-03     31.6366E-03
            1067            1923     35.3767E-03     35.5843E-03
            1068            1905     36.0987E-03     36.0119E-03
            1068            1906     39.8526E-03     39.7502E-03
            1068            1923     35.3767E-03     35.5843E-03
            1068            1924     39.4583E-03     39.6436E-03
            1069            1906     39.8526E-03     39.7502E-03
            1069            1907     43.6719E-03     43.5380E-03
            1069            1924     39.4583E-03     39.6436E-03
            1069            1925     43.6035E-03     43.7728E-03
            1070            1907     43.6719E-03     43.5380E-03
            1070            1908     47.5174E-03     47.3366E-03
            1070            1925     43.6035E-03     43.7728E-03
            1070            1926     47.7935E-03     47.9371E-03
            1071            1908     47.5174E-03     47.3366E-03
            1071            1909     51.3566E-03     51.1054E-03
            1071            1926     47.7935E-03     47.9371E-03
            1071            1927     51.9943E-03     52.1134E-03
            1072            1909     51.3566E-03     51.1054E-03
            1072            1910     55.1470E-03     54.8112E-03
            1072            1927     51.9943E-03     52.1134E-03
            1072            1928     56.1872E-03     56.2668E-03
            1073            1910     55.1470E-03     54.8112E-03
            1073            1911     58.8523E-03     58.3990E-03
            1073            1928     56.1872E-03     56.2668E-03
            1073            1929     60.3212E-03     60.3712E-03
            1074            1911     58.8523E-03     58.3990E-03
            1074            1912     62.4150E-03     61.8257E-03
            1074            1929     60.3212E-03     60.3712E-03
            1074            1930     64.3536E-03     64.3638E-03
            1075            1912     62.4150E-03     61.8257E-03
            1075            1913     65.7671E-03     65.0081E-03
            1075            1930     64.3536E-03     64.3638E-03
            1075            1931     68.1926E-03     68.1937E-03
            1076            1913     65.7671E-03     65.0081E-03
            1076            1914     68.8215E-03     67.8704E-03
            1076            1931     68.1926E-03     68.1937E-03
            1076            1932     71.7235E-03     71.7410E-03
            1077            1914     68.8215E-03     67.8704E-03
            1077            1915     71.4333E-03     70.2917E-03
            1077            1932     71.7235E-03     71.7410E-03
            1077            1933     74.7803E-03     74.8875E-03
            1078            1915     71.4333E-03     70.2917E-03
            1078            1916     73.4279E-03     72.1142E-03
            1078            1933     74.7803E-03     74.8875E-03
            1078            1934     77.1046E-03     77.4223E-03
            1079             361     74.3846E-03     73.0515E-03
            1079             362     78.4322E-03     78.9735E-03
            1079            1916     73.4279E-03     72.1142E-03
            1079            1934     77.1046E-03     77.4223E-03
            1080             434     13.3656E-03     13.4129E-03
            1080             435     16.0863E-03     16.9071E-03
            1080            1917     16.2198E-03     17.8227E-03
            1080            1935     13.9668E-03     14.5793E-03
            1081            1917     16.2198E-03     17.8227E-03
            1081            1918     17.5789E-03     19.4967E-03
            1081            1935     13.9668E-03     14.5793E-03
            1081            1936     15.7243E-03     17.1669E-03
            1082            1918     17.5789E-03     19.4967E-03
            1082            1919     20.4661E-03     21.5194E-03
            1082            1936     15.7243E-03     17.1669E-03
            1082            1937     18.6178E-03     20.0700E-03
            1083            1919     20.4661E-03     21.5194E-03
            1083            1920     23.8914E-03     24.4222E-03
            1083            1937     18.6178E-03     20.0700E-03
            1083            1938     22.3233E-03     23.3460E-03
            1084            1920     23.8914E-03     24.4222E-03
            1084            1921     27.5456E-03     27.8783E-03
            1084            1938     22.3233E-03     23.3460E-03
            1084            1939     26.3335E-03     27.0983E-03
            1085            1921     27.5456E-03     27.8783E-03
            1085            1922     31.3958E-03     31.6366E-03
            1085            1939     26.3335E-03     27.0983E-03
            1085            1940     30.4977E-03     31.1266E-03
            1086            1922     31.3958E-03     31.6366E-03
            1086            1923     35.3767E-03     35.5843E-03
            1086            1940     30.4977E-03     31.1266E-03
            1086            1941     34.7766E-03     35.3362E-03
            1087            1923     35.3767E-03     35.5843E-03
            1087            1924     39.4583E-03     39.6436E-03
            1087            1941     34.7766E-03     35.3362E-03
            1087            1942     39.1297E-03     39.6615E-03
            1088            1924     39.4583E-03     39.6436E-03
            1088            1925     43.6035E-03     43.7728E-03
            1088            1942     39.1297E-03     39.6615E-03
            1088            1943     43.5487E-03     44.0659E-03
            1089            1925     43.6035E-03     43.7728E-03
            1089            1926     47.7935E-03     47.9371E-03
            1089            1943     43.5487E-03     44.0659E-03
            1089            1944     48.0080E-03     48.5266E-03
            1090            1926     47.7935E-03     47.9371E-03
            1090            1927     51.9943E-03     52.1134E-03
            1090            1944     48.0080E-03     48.5266E-03
            1090            1945     52.5028E-03     53.0228E-03
            1091            1927     51.9943E-03     52.1134E-03
            1091            1928     56.1872E-03     56.2668E-03
            1091            1945     52.5028E-03     53.0228E-03
            1091            1946     56.9984E-03     57.5387E-03
            1092            1928     56.1872E-03     56.2668E-03
            1092            1929     60.3212E-03     60.3712E-03
            1092            1946     56.9984E-03     57.5387E-03
            1092            1947     61.4790E-03     62.0405E-03
            1093            1929     60.3212E-03     60.3712E-03
            1093            1930     64.3536E-03     64.3638E-03
            1093            1947     61.4790E-03     62.0405E-03
            1093            1948     65.8734E-03     66.4957E-03
            1094            1930     64.3536E-03     64.3638E-03
            1094            1931     68.1926E-03     68.1937E-03
            1094            1948     65.8734E-03     66.4957E-03
            1094            1949     70.1154E-03     70.8179E-03
            1095            1931     68.1926E-03     68.1937E-03
            1095            1932     71.7235E-03     71.7410E-03
            1095            1949     70.1154E-03     70.8179E-03
            1095            1950     74.0709E-03     74.9144E-03
            1096            1932     71.7235E-03     71.7410E-03
            1096            1933     74.7803E-03     74.8875E-03
            1096            1950     74.0709E-03     74.9144E-03
            1096            1951     77.5507E-03     78.6089E-03
            1097            1933     74.7803E-03     74.8875E-03
            1097            1934     77.1046E-03     77.4223E-03
            1097            1951     77.5507E-03     78.6089E-03
            1097            1952     80.4040E-03     81.6500E-03
            1098             362     78.4322E-03     78.9735E-03
            1098             363     82.5847E-03     83.9449E-03
            1098            1934     77.1046E-03     77.4223E-03
            1098            1952     80.4040E-03     81.6500E-03
            1099             433     10.9797E-03     11.3243E-03
            1099             434     13.3656E-03     13.4129E-03
            1099            1935     13.9668E-03     14.5793E-03
            1099            1953     11.6842E-03     12.3528E-03
            1100            1935     13.9668E-03     14.5793E-03
            1100            1936     15.7243E-03     17.1669E-03
            1100            1953     11.6842E-03     12.3528E-03
            1100            1954     13.8416E-03     15.0608E-03
            1101            1936     15.7243E-03     17.1669E-03
            1101            1937     18.6178E-03     20.0700E-03
            1101            1954     13.8416E-03     15.0608E-03
            1101            1955     17.1210E-03     18.6002E-03
            1102            1937     18.6178E-03     20.0700E-03
            1102            1938     22.3233E-03     23.3460E-03
            1102            1955     17.1210E-03     18.6002E-03
            1102            1956     21.0326E-03     22.4033E-03
            1103            1938     22.3233E-03     23.3460E-03
            1103            1939     26.3335E-03     27.0983E-03
            1103            1956     21.0326E-03     22.4033E-03
            1103            1957     25.3020E-03     26.4487E-03
            1104            1939     26.3335E-03     27.0983E-03
            1104            1940     30.4977E-03     31.1266E-03
            1104            1957     25.3020E-03     26.4487E-03
            1104            1958     29.7128E-03     30.7258E-03
            1105            1940     30.4977E-03     31.1266E-03
            1105            1941     34.7766E-03     35.3362E-03
            1105            1958     29.7128E-03     30.7258E-03
            1105            1959     34.2093E-03     35.1427E-03
            1106            1941     34.7766E-03     35.3362E-03
            1106            1942     39.1297E-03     39.6615E-03
            1106            1959     34.2093E-03     35.1427E-03
            1106            1960     38.7714E-03     39.6686E-03
            1107            1942     39.1297E-03     39.6615E-03
            1107            1943     43.5487E-03     44.0659E-03
            1107            1960     38.7714E-03     39.6686E-03
            1107            1961     43.3806E-03     44.2728E-03
            1108            1943     43.5487E-03     44.0659E-03
            1108            1944     48.0080E-03     48.5266E-03
            1108            1961     43.3806E-03     44.2728E-03
            1108            1962     48.0384E-03     48.9418E-03
            1109            1944     48.0080E-03     48.5266E-03
            1109            1945     52.5028E-03     53.0228E-03
            1109            1962     48.0384E-03     48.9418E-03
            1109            1963     52.7271E-03     53.6644E-03
            1110            1945     52.5028E-03     53.0228E-03
            1110            1946     56.9984E-03     57.5387E-03
            1110            1963     52.7271E-03     53.6644E-03
            1110            1964     57.4480E-03     58.4300E-03
            1111            1946     56.9984E-03     57.5387E-03
            1111            1947     61.4790E-03     62.0405E-03
            1111            1964     57.4480E-03     58.4300E-03
            1111            1965     62.1624E-03     63.2225E-03
            1112            1947     61.4790E-03     62.0405E-03
            1112            1948     65.8734E-03     66.4957E-03
            1112            1965     62.1624E-03     63.2225E-03
            1112            1966     66.8550E-03     68.0062E-03
            1113            1948     65.8734E-03     66.4957E-03
            1113            1949     70.1154E-03     70.8179E-03
            1113            1966     66.8550E-03     68.0062E-03
            1113            1967     71.4327E-03     72.7264E-03
            1114            1949     70.1154E-03     70.8179E-03
            1114            1950     74.0709E-03     74.9144E-03
            1114            1967     71.4327E-03     72.7264E-03
            1114            1968     75.8030E-03     77.2614E-03
            1115            1950     74.0709E-03     74.9144E-03
            1115            1951     77.5507E-03     78.6089E-03
            1115            1968     75.8030E-03     77.2614E-03
            1115            1969     79.8319E-03     81.4451E-03
            1116            1951     77.5507E-03     78.6089E-03
            1116            1952     80.4040E-03     81.6500E-03
            1116            1969     79.8319E-03     81.4451E-03
            1116            1970     83.3492E-03     85.0935E-03
            1117             363     82.5847E-03     83.9449E-03
            1117             364     86.6030E-03     88.1434E-03
            1117            1952     80.4040E-03     81.6500E-03
            1117            1970     83.3492E-03     85.0935E-03
            1118             432     8.71495E-03     8.61669E-03
            1118             433     10.9797E-03     11.3243E-03
            1118            1953     11.6842E-03     12.3528E-03
            1118            1971     9.57674E-03     10.1345E-03
            1119            1953     11.6842E-03     12.3528E-03
            1119            1954     13.8416E-03     15.0608E-03
            1119            1971     9.57674E-03     10.1345E-03
            1119            1972     12.0827E-03     13.4675E-03
            1120            1954     13.8416E-03     15.0608E-03
            1120            1955     17.1210E-03     18.6002E-03
            1120            1972     12.0827E-03     13.4675E-03
            1120            1973     15.7562E-03     17.3385E-03
            1121            1955     17.1210E-03     18.6002E-03
            1121            1956     21.0326E-03     22.4033E-03
            1121            1973     15.7562E-03     17.3385E-03
            1121            1974     19.9598E-03     21.5405E-03
            1122            1956     21.0326E-03     22.4033E-03
            1122            1957     25.3020E-03     26.4487E-03
            1122            1974     19.9598E-03     21.5405E-03
            1122            1975     24.4042E-03     25.8812E-03
            1123            1957     25.3020E-03     26.4487E-03
            1123            1958     29.7128E-03     30.7258E-03
            1123            1975     24.4042E-03     25.8812E-03
            1123            1976     28.9846E-03     30.3442E-03
            1124            1958     29.7128E-03     30.7258E-03
            1124            1959     34.2093E-03     35.1427E-03
            1124            1976     28.9846E-03     30.3442E-03
            1124            1977     33.6265E-03     34.9203E-03
            1125            1959     34.2093E-03     35.1427E-03
            1125            1960     38.7714E-03     39.6686E-03
            1125            1977     33.6265E-03     34.9203E-03
            1125            1978     38.3135E-03     39.5768E-03
            1126            1960     38.7714E-03     39.6686E-03
            1126            1961     43.3806E-03     44.2728E-03
            1126            1978     38.3135E-03     39.5768E-03
            1126            1979     43.0420E-03     44.3048E-03
            1127            1961     43.3806E-03     44.2728E-03
            1127            1962     48.0384E-03     48.9418E-03
            1127            1979     43.0420E-03     44.3048E-03
            1127            1980     47.8068E-03     49.0941E-03
            1128            1962     48.0384E-03     48.9418E-03
            1128            1963     52.7271E-03     53.6644E-03
            1128            1980     47.8068E-03     49.0941E-03
            1128            1981     52.6143E-03     53.9458E-03
            1129            1963     52.7271E-03     53.6644E-03
            1129            1964     57.4480E-03     58.4300E-03
            1129            1981     52.6143E-03     53.9458E-03
            1129            1982     57.4542E-03     58.8550E-03
            1130            1964     57.4480E-03     58.4300E-03
            1130            1965     62.1624E-03     63.2225E-03
            1130            1982     57.4542E-03     58.8550E-03
            1130            1983     62.3362E-03     63.8240E-03
            1131            1965     62.1624E-03     63.2225E-03
            1131            1966     66.8550E-03     68.0062E-03
            1131            1983     62.3362E-03     63.8240E-03
            1131            1984     67.2233E-03     68.8320E-03
            1132            1966     66.8550E-03     68.0062E-03
            1132            1967     71.4327E-03     72.7264E-03
            1132            1984     67.2233E-03     68.8320E-03
            1132            1985     72.1220E-03     73.8509E-03
            1133            1967     71.4327E-03     72.7264E-03
            1133            1968     75.8030E-03     77.2614E-03
            1133            1985     72.1220E-03     73.8509E-03
            1133            1986     76.9302E-03     78.8030E-03
            1134            1968     75.8030E-03     77.2614E-03
            1134            1969     79.8319E-03     81.4451E-03
            1134            1986     76.9302E-03     78.8030E-03
            1134            1987     81.5697E-03     83.5356E-03
            1135            1969     79.8319E-03     81.4451E-03
            1135            1970     83.3492E-03     85.0935E-03
            1135            1987     81.5697E-03     83.5356E-03
            1135            1988     86.0062E-03     87.8947E-03
            1136             364     86.6030E-03     88.1434E-03
            1136             365     90.1608E-03     91.8302E-03
            1136            1970     83.3492E-03     85.0935E-03
            1136            1988     86.0062E-03     87.8947E-03
            1137             431     6.27435E-03     6.64692E-03
            1137             432     8.71495E-03     8.61669E-03
            1137            1971     9.57674E-03     10.1345E-03
            1137            1989     7.44042E-03     8.31724E-03
            1138            1971     9.57674E-03     10.1345E-03
            1138            1972     12.0827E-03     13.4675E-03
            1138            1989     7.44042E-03     8.31724E-03
            1138            1990     10.5157E-03     12.0925E-03
            1139            1972     12.0827E-03     13.4675E-03
            1139            1973     15.7562E-03     17.3385E-03
            1139            1990     10.5157E-03     12.0925E-03
            1139            1991     14.5831E-03     16.3817E-03
            1140            1973     15.7562E-03     17.3385E-03
            1140            1974     19.9598E-03     21.5405E-03
            1140            1991     14.5831E-03     16.3817E-03
            1140            1992     19.0178E-03     20.8178E-03
            1141            1974     19.9598E-03     21.5405E-03
            1141            1975     24.4042E-03     25.8812E-03
            1141            1992     19.0178E-03     20.8178E-03
            1141            1993     23.6151E-03     25.3551E-03
            1142            1975     24.4042E-03     25.8812E-03
            1142            1976     28.9846E-03     30.3442E-03
            1142            1993     23.6151E-03     25.3551E-03
            1142            1994     28.2849E-03     29.9585E-03
            1143            1976     28.9846E-03     30.3442E-03
            1143            1977     33.6265E-03     34.9203E-03
            1143            1994     28.2849E-03     29.9585E-03
            1143            1995     32.9982E-03     34.6277E-03
            1144            1977     33.6265E-03     34.9203E-03
            1144            1978     38.3135E-03     39.5768E-03
            1144            1995     32.9982E-03     34.6277E-03
            1144            1996     37.7392E-03     39.3533E-03
            1145            1978     38.3135E-03     39.5768E-03
            1145            1979     43.0420E-03     44.3048E-03
            1145            1996     37.7392E-03     39.3533E-03
            1145            1997     42.5087E-03     44.1300E-03
            1146            1979     43.0420E-03     44.3048E-03
            1146            1980     47.8068E-03     49.0941E-03
            1146            1997     42.5087E-03     44.1300E-03
            1146            1998     47.3094E-03     48.9609E-03
            1147            1980     47.8068E-03     49.0941E-03
            1147            1981     52.6143E-03     53.9458E-03
            1147            1998     47.3094E-03     48.9609E-03
            1147            1999     52.1474E-03     53.8470E-03
            1148            1981     52.6143E-03     53.9458E-03
            1148            1982     57.4542E-03     58.8550E-03
            1148            1999     52.1474E-03     53.8470E-03
            1148            2000     57.0349E-03     58.8053E-03
            1149            1982     57.4542E-03     58.8550E-03
            1149            1983     62.3362E-03     63.8240E-03
            1149            2000     57.0349E-03     58.8053E-03
            1149            2001     61.9780E-03     63.8370E-03
            1150            1983     62.3362E-03     63.8240E-03
            1150            1984     67.2233E-03     68.8320E-03
            1150            2001     61.9780E-03     63.8370E-03
            1150            2002     67.0114E-03     68.9721E-03
            1151            1984     67.2233E-03     68.8320E-03
            1151            1985     72.1220E-03     73.8509E-03
            1151            2002     67.0114E-03     68.9721E-03
            1151            2003     72.1210E-03     74.1963E-03
            1152            1985     72.1220E-03     73.8509E-03
            1152            1986     76.9302E-03     78.8030E-03
            1152            2003     72.1210E-03     74.1963E-03
            1152            2004     77.3998E-03     79.5258E-03
            1153            1986     76.9302E-03     78.8030E-03
            1153            1987     81.5697E-03     83.5356E-03
            1153            2004     77.3998E-03     79.5258E-03
            1153            2005     82.7460E-03     84.9059E-03
            1154            1987     81.5697E-03     83.5356E-03
            1154            1988     86.0062E-03     87.8947E-03
            1154            2005     82.7460E-03     84.9059E-03
            1154            2006     88.0985E-03     90.1538E-03
            1155             365     90.1608E-03     91.8302E-03
            1155             366     93.4573E-03     95.1403E-03
            1155            1988     86.0062E-03     87.8947E-03
            1155            2006     88.0985E-03     90.1538E-03
            1156             430     3.98103E-03     4.77812E-03
            1156             431     6.27435E-03     6.64692E-03
            1156            1989     7.44042E-03     8.31724E-03
            1156            2007     5.53569E-03     6.83264E-03
            1157            1989     7.44042E-03     8.31724E-03
            1157            1990     10.5157E-03     12.0925E-03
            1157            2007     5.53569E-03     6.83264E-03
            1157            2008     9.22148E-03     11.1400E-03
            1158            1990     10.5157E-03     12.0925E-03
            1158            1991     14.5831E-03     16.3817E-03
            1158            2008     9.22148E-03     11.1400E-03
            1158            2009     13.6325E-03     15.6824E-03
            1159            1991     14.5831E-03     16.3817E-03
            1159            1992     19.0178E-03     20.8178E-03
            1159            2009     13.6325E-03     15.6824E-03
            1159            2010     18.2427E-03     20.2649E-03
            1160            1992     19.0178E-03     20.8178E-03
            1160            1993     23.6151E-03     25.3551E-03
            1160            2010     18.2427E-03     20.2649E-03
            1160            2011     22.9176E-03     24.8951E-03
            1161            1993     23.6151E-03     25.3551E-03
            1161            1994     28.2849E-03     29.9585E-03
            1161            2011     22.9176E-03     24.8951E-03
            1161            2012     27.6141E-03     29.5758E-03
            1162            1994     28.2849E-03     29.9585E-03
            1162            1995     32.9982E-03     34.6277E-03
            1162            2012     27.6141E-03     29.5758E-03
            1162            2013     32.3283E-03     34.2774E-03
            1163            1995     32.9982E-03     34.6277E-03
            1163            1996     37.7392E-03     39.3533E-03
            1163            2013     32.3283E-03     34.2774E-03
            1163            2014     37.0595E-03     39.0100E-03
            1164            1996     37.7392E-03     39.3533E-03
            1164            1997     42.5087E-03     44.1300E-03
            1164            2014     37.0595E-03     39.0100E-03
            1164            2015     41.8047E-03     43.7721E-03
            1165            1997     42.5087E-03     44.1300E-03
            1165            1998     47.3094E-03     48.9609E-03
            1165            2015     41.8047E-03     43.7721E-03
            1165            2016     46.5750E-03     48.5691E-03
            1166            1998     47.3094E-03     48.9609E-03
            1166            1999     52.1474E-03     53.8470E-03
            1166            2016     46.5750E-03     48.5691E-03
            1166            2017     51.3761E-03     53.4158E-03
            1167            1999     52.1474E-03     53.8470E-03
            1167            2000     57.0349E-03     58.8053E-03
            1167            2017     51.3761E-03     53.4158E-03
            1167            2018     56.2310E-03     58.3236E-03
            1168            2000     57.0349E-03     58.8053E-03
            1168            2001     61.9780E-03     63.8370E-03
            1168            2018     56.2310E-03     58.3236E-03
            1168            2019     61.1648E-03     63.3331E-03
            1169            2001     61.9780E-03     63.8370E-03
            1169            2002     67.0114E-03     68.9721E-03
            1169            2019     61.1648E-03     63.3331E-03
            1169            2020     66.2221E-03     68.4650E-03
            1170            2002     67.0114E-03     68.9721E-03
            1170            2003     72.1210E-03     74.1963E-03
            1170            2020     66.2221E-03     68.4650E-03
            1170            2021     71.4946E-03     73.8082E-03
            1171            2003     72.1210E-03     74.1963E-03
            1171            2004     77.3998E-03     79.5258E-03
            1171            2021     71.4946E-03     73.8082E-03
            1171            2022     77.0308E-03     79.3937E-03
            1172            2004     77.3998E-03     79.5258E-03
            1172            2005     82.7460E-03     84.9059E-03
            1172            2022     77.0308E-03     79.3937E-03
            1172            2023     83.1369E-03     85.3716E-03
            1173            2005     82.7460E-03     84.9059E-03
            1173            2006     88.0985E-03     90.1538E-03
            1173            2023     83.1369E-03     85.3716E-03
            1173            2024     89.6142E-03     91.7296E-03
            1174             366     93.4573E-03     95.1403E-03
            1174             367     96.2012E-03     98.1656E-03
            1174            2006     88.0985E-03     90.1538E-03
            1174            2024     89.6142E-03     91.7296E-03
            1175             429     2.11239E-03     3.70345E-03
            1175             430     3.98103E-03     4.77812E-03
            1175            2007     5.53569E-03     6.83264E-03
            1175            2025     4.08408E-03     6.09464E-03
            1176            2007     5.53569E-03     6.83264E-03
            1176            2008     9.22148E-03     11.1400E-03
            1176            2025     4.08408E-03     6.09464E-03
            1176            2026     8.36513E-03     10.7413E-03
            1177            2008     9.22148E-03     11.1400E-03
            1177            2009     13.6325E-03     15.6824E-03
            1177            2026     8.36513E-03     10.7413E-03
            1177            2027     13.0226E-03     15.2690E-03
            1178            2009     13.6325E-03     15.6824E-03
            1178            2010     18.2427E-03     20.2649E-03
            1178            2027     13.0226E-03     15.2690E-03
            1178            2028     17.6929E-03     19.8883E-03
            1179            2010     18.2427E-03     20.2649E-03
            1179            2011     22.9176E-03     24.8951E-03
            1179            2028     17.6929E-03     19.8883E-03
            1179            2029     22.3393E-03     24.5656E-03
            1180            2011     22.9176E-03     24.8951E-03
            1180            2012     27.6141E-03     29.5758E-03
            1180            2029     22.3393E-03     24.5656E-03
            1180            2030     26.9933E-03     29.2373E-03
            1181            2012     27.6141E-03     29.5758E-03
            1181            2013     32.3283E-03     34.2774E-03
            1181            2030     26.9933E-03     29.2373E-03
            1181            2031     31.6517E-03     33.9191E-03
            1182            2013     32.3283E-03     34.2774E-03
            1182            2014     37.0595E-03     39.0100E-03
            1182            2031     31.6517E-03     33.9191E-03
            1182            2032     36.3129E-03     38.6005E-03
            1183            2014     37.0595E-03     39.0100E-03
            1183            2015     41.8047E-03     43.7721E-03
            1183            2032     36.3129E-03     38.6005E-03
            1183            2033     40.9856E-03     43.2911E-03
            1184            2015     41.8047E-03     43.7721E-03
            1184            2016     46.5750E-03     48.5691E-03
            1184            2033     40.9856E-03     43.2911E-03
            1184            2034     45.6686E-03     47.9981E-03
            1185            2016     46.5750E-03     48.5691E-03
            1185            2017     51.3761E-03     53.4158E-03
            1185            2034     45.6686E-03     47.9981E-03
            1185            2035     50.3831E-03     52.7342E-03
            1186            2017     51.3761E-03     53.4158E-03
            1186            2018     56.2310E-03     58.3236E-03
            1186            2035     50.3831E-03     52.7342E-03
            1186            2036     55.1401E-03     57.5274E-03
            1187            2018     56.2310E-03     58.3236E-03
            1187            2019     61.1648E-03     63.3331E-03
            1187            2036     55.1401E-03     57.5274E-03
            1187            2037     59.9920E-03     62.4084E-03
            1188            2019     61.1648E-03     63.3331E-03
            1188            2020     66.2221E-03     68.4650E-03
            1188            2037     59.9920E-03     62.4084E-03
            1188            2038     64.9866E-03     67.4538E-03
            1189            2020     66.2221E-03     68.4650E-03
            1189            2021     71.4946E-03     73.8082E-03
            1189            2038     64.9866E-03     67.4538E-03
            1189            2039     70.2443E-03     72.7356E-03
            1190            2021     71.4946E-03     73.8082E-03
            1190            2022     77.0308E-03     79.3937E-03
            1190            2039     70.2443E-03     72.7356E-03
            1190            2040     75.9461E-03     78.4493E-03
            1191            2022     77.0308E-03     79.3937E-03
            1191            2023     83.1369E-03     85.3716E-03
            1191            2040     75.9461E-03     78.4493E-03
            1191            2041     82.2780E-03     84.7349E-03
            1192            2023     83.1369E-03     85.3716E-03
            1192            2024     89.6142E-03     91.7296E-03
            1192            2041     82.2780E-03     84.7349E-03
            1192            2042     90.0045E-03     92.0743E-03
            1193             367     96.2012E-03     98.1656E-03
            1193             368     98.5699E-03     100.321E-03
            1193            2024     89.6142E-03     91.7296E-03
            1193            2042     90.0045E-03     92.0743E-03
            1194             428     2.19685E-03     4.82277E-03
            1194             429     2.11239E-03     3.70345E-03
            1194            2025     4.08408E-03     6.09464E-03
            1194            2043     4.10610E-03     6.75091E-03
            1195            2025     4.08408E-03     6.09464E-03
            1195            2026     8.36513E-03     10.7413E-03
            1195            2043     4.10610E-03     6.75091E-03
            1195            2044     8.33397E-03     10.7817E-03
            1196            2026     8.36513E-03     10.7413E-03
            1196            2027     13.0226E-03     15.2690E-03
            1196            2044     8.33397E-03     10.7817E-03
            1196            2045     12.9039E-03     15.1892E-03
            1197            2027     13.0226E-03     15.2690E-03
            1197            2028     17.6929E-03     19.8883E-03
            1197            2045     12.9039E-03     15.1892E-03
            1197            2046     17.4144E-03     19.7978E-03
            1198            2028     17.6929E-03     19.8883E-03
            1198            2029     22.3393E-03     24.5656E-03
            1198            2046     17.4144E-03     19.7978E-03
            1198            2047     21.9408E-03     24.4142E-03
            1199            2029     22.3393E-03     24.5656E-03
            1199            2030     26.9933E-03     29.2373E-03
            1199            2047     21.9408E-03     24.4142E-03
            1199            2048     26.4767E-03     29.0283E-03
            1200            2030     26.9933E-03     29.2373E-03
            1200            2031     31.6517E-03     33.9191E-03
            1200            2048     26.4767E-03     29.0283E-03
            1200            2049     31.0199E-03     33.6236E-03
            1201            2031     31.6517E-03     33.9191E-03
            1201            2032     36.3129E-03     38.6005E-03
            1201            2049     31.0199E-03     33.6236E-03
            1201            2050     35.5703E-03     38.2071E-03
            1202            2032     36.3129E-03     38.6005E-03
            1202            2033     40.9856E-03     43.2911E-03
            1202            2050     35.5703E-03     38.2071E-03
            1202            2051     40.1223E-03     42.7790E-03
            1203            2033     40.9856E-03     43.2911E-03
            1203            2034     45.6686E-03     47.9981E-03
            1203            2051     40.1223E-03     42.7790E-03
            1203            2052     44.6876E-03     47.3498E-03
            1204            2034     45.6686E-03     47.9981E-03
            1204            2035     50.3831E-03     52.7342E-03
            1204            2052     44.6876E-03     47.3498E-03
            1204            2053     49.2676E-03     51.9318E-03
            1205            2035     50.3831E-03     52.7342E-03
            1205            2036     55.1401E-03     57.5274E-03
            1205            2053     49.2676E-03     51.9318E-03
            1205            2054     53.8987E-03     56.5507E-03
            1206            2036     55.1401E-03     57.5274E-03
            1206            2037     59.9920E-03     62.4084E-03
            1206            2054     53.8987E-03     56.5507E-03
            1206            2055     58.6013E-03     61.2474E-03
            1207            2037     59.9920E-03     62.4084E-03
            1207            2038     64.9866E-03     67.4538E-03
            1207            2055     58.6013E-03     61.2474E-03
            1207            2056     63.4729E-03     66.0930E-03
            1208            2038     64.9866E-03     67.4538E-03
            1208            2039     70.2443E-03     72.7356E-03
            1208            2056     63.4729E-03     66.0930E-03
            1208            2057     68.5874E-03     71.2040E-03
            1209            2039     70.2443E-03     72.7356E-03
            1209            2040     75.9461E-03     78.4493E-03
            1209            2057     68.5874E-03     71.2040E-03
            1209            2058     74.1923E-03     76.7656E-03
            1210            2040     75.9461E-03     78.4493E-03
            1210            2041     82.2780E-03     84.7349E-03
            1210            2058     74.1923E-03     76.7656E-03
            1210            2059     80.5497E-03     83.1088E-03
            1211            2041     82.2780E-03     84.7349E-03
            1211            2042     90.0045E-03     92.0743E-03
            1211            2059     80.5497E-03     83.1088E-03
            1211            2060     88.2146E-03     90.6605E-03
            1212             368     98.5699E-03     100.321E-03
            1212             369     98.9813E-03     100.676E-03
            1212            2042     90.0045E-03     92.0743E-03
            1212            2060     88.2146E-03     90.6605E-03
            1213             427     4.13519E-03     6.62502E-03
            1213             428     2.19685E-03     4.82277E-03
            1213            2043     4.10610E-03     6.75091E-03
            1213            2061     5.77264E-03     7.92560E-03
            1214            2043     4.10610E-03     6.75091E-03
            1214            2044     8.33397E-03     10.7817E-03
            1214            2061     5.77264E-03     7.92560E-03
            1214            2062     9.32735E-03     11.2997E-03
            1215            2044     8.33397E-03     10.7817E-03
            1215            2045     12.9039E-03     15.1892E-03
            1215            2062     9.32735E-03     11.2997E-03
            1215            2063     13.3143E-03     15.5961E-03
            1216            2045     12.9039E-03     15.1892E-03
            1216            2046     17.4144E-03     19.7978E-03
            1216            2063     13.3143E-03     15.5961E-03
            1216            2064     17.5045E-03     20.0619E-03
            1217            2046     17.4144E-03     19.7978E-03
            1217            2047     21.9408E-03     24.4142E-03
            1217            2064     17.5045E-03     20.0619E-03
            1217            2065     21.7898E-03     24.5483E-03
            1218            2047     21.9408E-03     24.4142E-03
            1218            2048     26.4767E-03     29.0283E-03
            1218            2065     21.7898E-03     24.5483E-03
            1218            2066     26.1370E-03     29.0268E-03
            1219            2048     26.4767E-03     29.0283E-03
            1219            2049     31.0199E-03     33.6236E-03
            1219            2066     26.1370E-03     29.0268E-03
            1219            2067     30.5146E-03     33.4861E-03
            1220            2049     31.0199E-03     33.6236E-03
            1220            2050     35.5703E-03     38.2071E-03
            1220            2067     30.5146E-03     33.4861E-03
            1220            2068     34.9085E-03     37.9229E-03
            1221            2050     35.5703E-03     38.2071E-03
            1221            2051     40.1223E-03     42.7790E-03
            1221            2068     34.9085E-03     37.9229E-03
            1221            2069     39.3136E-03     42.3417E-03
            1222            2051     40.1223E-03     42.7790E-03
            1222            2052     44.6876E-03     47.3498E-03
            1222            2069     39.3136E-03     42.3417E-03
            1222            2070     43.7249E-03     46.7440E-03
            1223            2052     44.6876E-03     47.3498E-03
            1223            2053     49.2676E-03     51.9318E-03
            1223            2070     43.7249E-03     46.7440E-03
            1223            2071     48.1597E-03     51.1465E-03
            1224            2053     49.2676E-03     51.9318E-03
            1224            2054     53.8987E-03     56.5507E-03
            1224            2071     48.1597E-03     51.1465E-03
            1224            2072     52.6273E-03     55.5625E-03
            1225            2054     53.8987E-03     56.5507E-03
            1225            2055     58.6013E-03     61.2474E-03
            1225            2072     52.6273E-03     55.5625E-03
            1225            2073     57.1839E-03     60.0425E-03
            1226            2055     58.6013E-03     61.2474E-03
            1226            2056     63.4729E-03     66.0930E-03
            1226            2073     57.1839E-03     60.0425E-03
            1226            2074     61.8668E-03     64.6323E-03
            1227            2056     63.4729E-03     66.0930E-03
            1227            2057     68.5874E-03     71.2040E-03
            1227            2074     61.8668E-03     64.6323E-03
            1227            2075     66.8258E-03     69.4771E-03
            1228            2057     68.5874E-03     71.2040E-03
            1228            2058     74.1923E-03     76.7656E-03
            1228            2075     66.8258E-03     69.4771E-03
            1228            2076     72.1554E-03     74.7067E-03
            1229            2058     74.1923E-03     76.7656E-03
            1229            2059     80.5497E-03     83.1088E-03
            1229            2076     72.1554E-03     74.7067E-03
            1229            2077     78.2860E-03     80.7536E-03
            1230            2059     80.5497E-03     83.1088E-03
            1230            2060     88.2146E-03     90.6605E-03
            1230            2077     78.2860E-03     80.7536E-03
            1230            2078     85.4517E-03     87.9663E-03
            1231             369     98.9813E-03     100.676E-03
            1231             370     95.4172E-03     98.1301E-03
            1231            2060     88.2146E-03     90.6605E-03
            1231            2078     85.4517E-03     87.9663E-03
            1232             426     13.0507E-03     16.6990E-03
            1232             427     4.13519E-03     6.62502E-03
            1232            2061     5.77264E-03     7.92560E-03
            1232            2079     14.9090E-03     17.2672E-03
            1233            2061     5.77264E-03     7.92560E-03
            1233            2062     9.32735E-03     11.2997E-03
            1233            2079     14.9090E-03     17.2672E-03
            1233            2080     18.4197E-03     19.4257E-03
            1234            2062     9.32735E-03     11.2997E-03
            1234            2063     13.3143E-03     15.5961E-03
            1234            2080     18.4197E-03     19.4257E-03
            1234            2081     21.9790E-03     23.0965E-03
            1235            2063     13.3143E-03     15.5961E-03
            1235            2064     17.5045E-03     20.0619E-03
            1235            2081     21.9790E-03     23.0965E-03
            1235            2082     26.0040E-03     27.4227E-03
            1236            2064     17.5045E-03     20.0619E-03
            1236            2065     21.7898E-03     24.5483E-03
            1236            2082     26.0040E-03     27.4227E-03
            1236            2083     30.3518E-03     31.9874E-03
            1237            2065     21.7898E-03     24.5483E-03
            1237            2066     26.1370E-03     29.0268E-03
            1237            2083     30.3518E-03     31.9874E-03
            1237            2084     34.9236E-03     36.7057E-03
            1238            2066     26.1370E-03     29.0268E-03
            1238            2067     30.5146E-03     33.4861E-03
            1238            2084     34.9236E-03     36.7057E-03
            1238            2085     39.6371E-03     41.4998E-03
            1239            2067     30.5146E-03     33.4861E-03
            1239            2068     34.9085E-03     37.9229E-03
            1239            2085     39.6371E-03     41.4998E-03
            1239            2086     44.4389E-03     46.3281E-03
            1240            2068     34.9085E-03     37.9229E-03
            1240            2069     39.3136E-03     42.3417E-03
            1240            2086     44.4389E-03     46.3281E-03
            1240            2087     49.2826E-03     51.1638E-03
            1241            2069     39.3136E-03     42.3417E-03
            1241            2070     43.7249E-03     46.7440E-03
            1241            2087     49.2826E-03     51.1638E-03
            1241            2088     54.1496E-03     55.9810E-03
            1242            2070     43.7249E-03     46.7440E-03
            1242            2071     48.1597E-03     51.1465E-03
            1242            2088     54.1496E-03     55.9810E-03
            1242            2089     59.0077E-03     60.7683E-03
            1243            2071     48.1597E-03     51.1465E-03
            1243            2072     52.6273E-03     55.5625E-03
            1243            2089     59.0077E-03     60.7683E-03
            1243            2090     63.8660E-03     65.5014E-03
            1244            2072     52.6273E-03     55.5625E-03
            1244            2073     57.1839E-03     60.0425E-03
            1244            2090     63.8660E-03     65.5014E-03
            1244            2091     68.6955E-03     70.1909E-03
            1245            2073     57.1839E-03     60.0425E-03
            1245            2074     61.8668E-03     64.6323E-03
            1245            2091     68.6955E-03     70.1909E-03
            1245            2092     73.5448E-03     74.8139E-03
            1246            2074     61.8668E-03     64.6323E-03
            1246            2075     66.8258E-03     69.4771E-03
            1246            2092     73.5448E-03     74.8139E-03
            1246            2093     78.3805E-03     79.4299E-03
            1247            2075     66.8258E-03     69.4771E-03
            1247            2076     72.1554E-03     74.7067E-03
            1247            2093     78.3805E-03     79.4299E-03
            1247            2094     83.3429E-03     84.0558E-03
            1248            2076     72.1554E-03     74.7067E-03
            1248            2077     78.2860E-03     80.7536E-03
            1248            2094     83.3429E-03     84.0558E-03
            1248            2095     88.3827E-03     88.8530E-03
            1249            2077     78.2860E-03     80.7536E-03
            1249            2078     85.4517E-03     87.9663E-03
            1249            2095     88.3827E-03     88.8530E-03
            1249            2096     93.9263E-03     94.1064E-03
            1250             370     95.4172E-03     98.1301E-03
            1250             371     99.9220E-03     100.223E-03
            1250            2078     85.4517E-03     87.9663E-03
            1250            2096     93.9263E-03     94.1064E-03
            1251             425     20.3787E-03     25.0784E-03
            1251             426     13.0507E-03     16.6990E-03
            1251            2079     14.9090E-03     17.2672E-03
            1251            2097     21.5763E-03     25.0527E-03
            1252            2079     14.9090E-03     17.2672E-03
            1252            2080     18.4197E-03     19.4257E-03
            1252            2097     21.5763E-03     25.0527E-03
            1252            2098     24.6287E-03     26.1421E-03
            1253            2080     18.4197E-03     19.4257E-03
            1253            2081     21.9790E-03     23.0965E-03
            1253            2098     24.6287E-03     26.1421E-03
            1253            2099     28.6372E-03     29.2642E-03
            1254            2081     21.9790E-03     23.0965E-03
            1254            2082     26.0040E-03     27.4227E-03
            1254            2099     28.6372E-03     29.2642E-03
            1254            2100     33.1186E-03     33.6268E-03
            1255            2082     26.0040E-03     27.4227E-03
            1255            2083     30.3518E-03     31.9874E-03
            1255            2100     33.1186E-03     33.6268E-03
            1255            2101     37.9877E-03     38.5497E-03
            1256            2083     30.3518E-03     31.9874E-03
            1256            2084     34.9236E-03     36.7057E-03
            1256            2101     37.9877E-03     38.5497E-03
            1256            2102     43.1735E-03     43.7978E-03
            1257            2084     34.9236E-03     36.7057E-03
            1257            2085     39.6371E-03     41.4998E-03
            1257            2102     43.1735E-03     43.7978E-03
            1257            2103     48.5577E-03     49.2249E-03
            1258            2085     39.6371E-03     41.4998E-03
            1258            2086     44.4389E-03     46.3281E-03
            1258            2103     48.5577E-03     49.2249E-03
            1258            2104     54.0780E-03     54.7510E-03
            1259            2086     44.4389E-03     46.3281E-03
            1259            2087     49.2826E-03     51.1638E-03
            1259            2104     54.0780E-03     54.7510E-03
            1259            2105     59.6745E-03     60.3214E-03
            1260            2087     49.2826E-03     51.1638E-03
            1260            2088     54.1496E-03     55.9810E-03
            1260            2105     59.6745E-03     60.3214E-03
            1260            2106     65.3005E-03     65.8950E-03
            1261            2088     54.1496E-03     55.9810E-03
            1261            2089     59.0077E-03     60.7683E-03
            1261            2106     65.3005E-03     65.8950E-03
            1261            2107     70.9248E-03     71.4310E-03
            1262            2089     59.0077E-03     60.7683E-03
            1262            2090     63.8660E-03     65.5014E-03
            1262            2107     70.9248E-03     71.4310E-03
            1262            2108     76.5018E-03     76.8973E-03
            1263            2090     63.8660E-03     65.5014E-03
            1263            2091     68.6955E-03     70.1909E-03
            1263            2108     76.5018E-03     76.8973E-03
            1263            2109     82.0052E-03     82.2445E-03
            1264            2091     68.6955E-03     70.1909E-03
            1264            2092     73.5448E-03     74.8139E-03
            1264            2109     82.0052E-03     82.2445E-03
            1264            2110     87.3785E-03     87.4352E-03
            1265            2092     73.5448E-03     74.8139E-03
            1265            2093     78.3805E-03     79.4299E-03
            1265            2110     87.3785E-03     87.4352E-03
            1265            2111     92.5800E-03     92.4094E-03
            1266            2093     78.3805E-03     79.4299E-03
            1266            2094     83.3429E-03     84.0558E-03
            1266            2111     92.5800E-03     92.4094E-03
            1266            2112     97.5294E-03     97.1076E-03
            1267            2094     83.3429E-03     84.0558E-03
            1267            2095     88.3827E-03     88.8530E-03
            1267            2112     97.5294E-03     97.1076E-03
            1267            2113     102.164E-03     101.492E-03
            1268            2095     88.3827E-03     88.8530E-03
            1268            2096     93.9263E-03     94.1064E-03
            1268            2113     102.164E-03     101.492E-03
            1268            2114     106.319E-03     105.443E-03
            1269             371     99.9220E-03     100.223E-03
            1269             372     109.943E-03     109.040E-03
            1269            2096     93.9263E-03     94.1064E-03
            1269            2114     106.319E-03     105.443E-03
            1270             424     18.2537E-03     19.6973E-03
            1270             425     20.3787E-03     25.0784E-03
            1270            2097     21.5763E-03     25.0527E-03
            1270            2115     18.6981E-03     21.1056E-03
            1271            2097     21.5763E-03     25.0527E-03
            1271            2098     24.6287E-03     26.1421E-03
            1271            2115     18.6981E-03     21.1056E-03
            1271            2116     21.1340E-03     23.8860E-03
            1272            2098     24.6287E-03     26.1421E-03
            1272            2099     28.6372E-03     29.2642E-03
            1272            2116     21.1340E-03     23.8860E-03
            1272            2117     25.6526E-03     27.3649E-03
            1273            2099     28.6372E-03     29.2642E-03
            1273            2100     33.1186E-03     33.6268E-03
            1273            2117     25.6526E-03     27.3649E-03
            1273            2118     30.8431E-03     32.0196E-03
            1274            2100     33.1186E-03     33.6268E-03
            1274            2101     37.9877E-03     38.5497E-03
            1274            2118     30.8431E-03     32.0196E-03
            1274            2119     36.3163E-03     37.3207E-03
            1275            2101     37.9877E-03     38.5497E-03
            1275            2102     43.1735E-03     43.7978E-03
            1275            2119     36.3163E-03     37.3207E-03
            1275            2120     42.0115E-03     42.9537E-03
            1276            2102     43.1735E-03     43.7978E-03
            1276            2103     48.5577E-03     49.2249E-03
            1276            2120     42.0115E-03     42.9537E-03
            1276            2121     47.8493E-03     48.7794E-03
            1277            2103     48.5577E-03     49.2249E-03
            1277            2104     54.0780E-03     54.7510E-03
            1277            2121     47.8493E-03     48.7794E-03
            1277            2122     53.7947E-03     54.7141E-03
            1278            2104     54.0780E-03     54.7510E-03
            1278            2105     59.6745E-03     60.3214E-03
            1278            2122     53.7947E-03     54.7141E-03
            1278            2123     59.8050E-03     60.7138E-03
            1279            2105     59.6745E-03     60.3214E-03
            1279            2106     65.3005E-03     65.8950E-03
            1279            2123     59.8050E-03     60.7138E-03
            1279            2124     65.8638E-03     66.7448E-03
            1280            2106     65.3005E-03     65.8950E-03
            1280            2107     70.9248E-03     71.4310E-03
            1280            2124     65.8638E-03     66.7448E-03
            1280            2125     71.9346E-03     72.7870E-03
            1281            2107     70.9248E-03     71.4310E-03
            1281            2108     76.5018E-03     76.8973E-03
            1281            2125     71.9346E-03     72.7870E-03
            1281            2126     78.0070E-03     78.8090E-03
            1282            2108     76.5018E-03     76.8973E-03
            1282            2109     82.0052E-03     82.2445E-03
            1282            2126     78.0070E-03     78.8090E-03
            1282            2127     84.0300E-03     84.7944E-03
            1283            2109     82.0052E-03     82.2445E-03
            1283            2110     87.3785E-03     87.4352E-03
            1283            2127     84.0300E-03     84.7944E-03
            1283            2128     89.9803E-03     90.6895E-03
            1284            2110     87.3785E-03     87.4352E-03
            1284            2111     92.5800E-03     92.4094E-03
            1284            2128     89.9803E-03     90.6895E-03
            1284            2129     95.7733E-03     96.4683E-03
            1285            2111     92.5800E-03     92.4094E-03
            1285            2112     97.5294E-03     97.1076E-03
            1285            2129     95.7733E-03     96.4683E-03
            1285            2130     101.339E-03     102.037E-03
            1286            2112     97.5294E-03     97.1076E-03
            1286            2113     102.164E-03     101.492E-03
            1286            2130     101.339E-03     102.037E-03
            1286            2131     106.552E-03     107.342E-03
            1287            2113     102.164E-03     101.492E-03
            1287            2114     106.319E-03     105.443E-03
            1287            2131     106.552E-03     107.342E-03
            1287            2132     111.242E-03     112.228E-03
            1288             372     109.943E-03     109.040E-03
            1288             373     115.457E-03     116.508E-03
            1288            2114     106.319E-03     105.443E-03
            1288            2132     111.242E-03     112.228E-03
            1289             423     14.4495E-03     14.9988E-03
            1289             424     18.2537E-03     19.6973E-03
            1289            2115     18.6981E-03     21.1056E-03
            1289            2133     15.5229E-03     16.8863E-03
            1290            2115     18.6981E-03     21.1056E-03
            1290            2116     21.1340E-03     23.8860E-03
            1290            2133     15.5229E-03     16.8863E-03
            1290            2134     18.5962E-03     21.0254E-03
            1291            2116     21.1340E-03     23.8860E-03
            1291            2117     25.6526E-03     27.3649E-03
            1291            2134     18.5962E-03     21.0254E-03
            1291            2135     23.3241E-03     25.6480E-03
            1292            2117     25.6526E-03     27.3649E-03
            1292            2118     30.8431E-03     32.0196E-03
            1292            2135     23.3241E-03     25.6480E-03
            1292            2136     29.0039E-03     30.7777E-03
            1293            2118     30.8431E-03     32.0196E-03
            1293            2119     36.3163E-03     37.3207E-03
            1293            2136     29.0039E-03     30.7777E-03
            1293            2137     34.9765E-03     36.4608E-03
            1294            2119     36.3163E-03     37.3207E-03
            1294            2120     42.0115E-03     42.9537E-03
            1294            2137     34.9765E-03     36.4608E-03
            1294            2138     41.0944E-03     42.4279E-03
            1295            2120     42.0115E-03     42.9537E-03
            1295            2121     47.8493E-03     48.7794E-03
            1295            2138     41.0944E-03     42.4279E-03
            1295            2139     47.3169E-03     48.5794E-03
            1296            2121     47.8493E-03     48.7794E-03
            1296            2122     53.7947E-03     54.7141E-03
            1296            2139     47.3169E-03     48.5794E-03
            1296            2140     53.6063E-03     54.8419E-03
            1297            2122     53.7947E-03     54.7141E-03
            1297            2123     59.8050E-03     60.7138E-03
            1297            2140     53.6063E-03     54.8419E-03
            1297            2141     59.9598E-03     61.1822E-03
            1298            2123     59.8050E-03     60.7138E-03
            1298            2124     65.8638E-03     66.7448E-03
            1298            2141     59.9598E-03     61.1822E-03
            1298            2142     66.3522E-03     67.5805E-03
            1299            2124     65.8638E-03     66.7448E-03
            1299            2125     71.9346E-03     72.7870E-03
            1299            2142     66.3522E-03     67.5805E-03
            1299            2143     72.7865E-03     74.0194E-03
            1300            2125     71.9346E-03     72.7870E-03
            1300            2126     78.0070E-03     78.8090E-03
            1300            2143     72.7865E-03     74.0194E-03
            1300            2144     79.2294E-03     80.4924E-03
            1301            2126     78.0070E-03     78.8090E-03
            1301            2127     84.0300E-03     84.7944E-03
            1301            2144     79.2294E-03     80.4924E-03
            1301            2145     85.6785E-03     86.9704E-03
            1302            2127     84.0300E-03     84.7944E-03
            1302            2128     89.9803E-03     90.6895E-03
            1302            2145     85.6785E-03     86.9704E-03
            1302            2146     92.0701E-03     93.4414E-03
            1303            2128     89.9803E-03     90.6895E-03
            1303            2129     95.7733E-03     96.4683E-03
            1303            2146     92.0701E-03     93.4414E-03
            1303            2147     98.3603E-03     99.8266E-03
            1304            2129     95.7733E-03     96.4683E-03
            1304            2130     101.339E-03     102.037E-03
            1304            2147     98.3603E-03     99.8266E-03
            1304            2148     104.449E-03     106.074E-03
            1305            2130     101.339E-03     102.037E-03
            1305            2131     106.552E-03     107.342E-03
            1305            2148     104.449E-03     106.074E-03
            1305            2149     110.159E-03     112.012E-03
            1306            2131     106.552E-03     107.342E-03
            1306            2132     111.242E-03     112.228E-03
            1306            2149     110.159E-03     112.012E-03
            1306            2150     115.481E-03     117.448E-03
            1307             373     115.457E-03     116.508E-03
            1307             374     120.083E-03     122.113E-03
            1307            2132     111.242E-03     112.228E-03
            1307            2150     115.481E-03     117.448E-03
            1308             422     11.0580E-03     12.1718E-03
            1308             423     14.4495E-03     14.9988E-03
            1308            2133     15.5229E-03     16.8863E-03
            1308            2151     12.4052E-03     13.9959E-03
            1309            2133     15.5229E-03     16.8863E-03
            1309            2134     18.5962E-03     21.0254E-03
            1309            2151     12.4052E-03     13.9959E-03
            1309            2152     16.2154E-03     18.4982E-03
            1310            2134     18.5962E-03     21.0254E-03
            1310            2135     23.3241E-03     25.6480E-03
            1310            2152     16.2154E-03     18.4982E-03
            1310            2153     21.5587E-03     24.0225E-03
            1311            2135     23.3241E-03     25.6480E-03
            1311            2136     29.0039E-03     30.7777E-03
            1311            2153     21.5587E-03     24.0225E-03
            1311            2154     27.5732E-03     29.7914E-03
            1312            2136     29.0039E-03     30.7777E-03
            1312            2137     34.9765E-03     36.4608E-03
            1312            2154     27.5732E-03     29.7914E-03
            1312            2155     33.9111E-03     35.8106E-03
            1313            2137     34.9765E-03     36.4608E-03
            1313            2138     41.0944E-03     42.4279E-03
            1313            2155     33.9111E-03     35.8106E-03
            1313            2156     40.3450E-03     42.0685E-03
            1314            2138     41.0944E-03     42.4279E-03
            1314            2139     47.3169E-03     48.5794E-03
            1314            2156     40.3450E-03     42.0685E-03
            1314            2157     46.8412E-03     48.4594E-03
            1315            2139     47.3169E-03     48.5794E-03
            1315            2140     53.6063E-03     54.8419E-03
            1315            2157     46.8412E-03     48.4594E-03
            1315            2158     53.3886E-03     54.9602E-03
            1316            2140     53.6063E-03     54.8419E-03
            1316            2141     59.9598E-03     61.1822E-03
            1316            2158     53.3886E-03     54.9602E-03
            1316            2159     59.9750E-03     61.5412E-03
            1317            2141     59.9598E-03     61.1822E-03
            1317            2142     66.3522E-03     67.5805E-03
            1317            2159     59.9750E-03     61.5412E-03
            1317            2160     66.6106E-03     68.1931E-03
            1318            2142     66.3522E-03     67.5805E-03
            1318            2143     72.7865E-03     74.0194E-03
            1318            2160     66.6106E-03     68.1931E-03
            1318            2161     73.2816E-03     74.9117E-03
            1319            2143     72.7865E-03     74.0194E-03
            1319            2144     79.2294E-03     80.4924E-03
            1319            2161     73.2816E-03     74.9117E-03
            1319            2162     79.9991E-03     81.6912E-03
            1320            2144     79.2294E-03     80.4924E-03
            1320            2145     85.6785E-03     86.9704E-03
            1320            2162     79.9991E-03     81.6912E-03
            1320            2163     86.7311E-03     88.5290E-03
            1321            2145     85.6785E-03     86.9704E-03
            1321            2146     92.0701E-03     93.4414E-03
            1321            2163     86.7311E-03     88.5290E-03
            1321            2164     93.4766E-03     95.3945E-03
            1322            2146     92.0701E-03     93.4414E-03
            1322            2147     98.3603E-03     99.8266E-03
            1322            2164     93.4766E-03     95.3945E-03
            1322            2165     100.162E-03     102.256E-03
            1323            2147     98.3603E-03     99.8266E-03
            1323            2148     104.449E-03     106.074E-03
            1323            2165     100.162E-03     102.256E-03
            1323            2166     106.697E-03     108.986E-03
            1324            2148     104.449E-03     106.074E-03
            1324            2149     110.159E-03     112.012E-03
            1324            2166     106.697E-03     108.986E-03
            1324            2167     112.999E-03     115.427E-03
            1325            2149     110.159E-03     112.012E-03
            1325            2150     115.481E-03     117.448E-03
            1325            2167     112.999E-03     115.427E-03
            1325            2168     118.777E-03     121.325E-03
            1326             374     120.083E-03     122.113E-03
            1326             375     124.092E-03     126.383E-03
            1326            2150     115.481E-03     117.448E-03
            1326            2168     118.777E-03     121.325E-03
            1327             421     7.88890E-03     8.66343E-03
            1327             422     11.0580E-03     12.1718E-03
            1327            2151     12.4052E-03     13.9959E-03
            1327            2169     9.63392E-03     11.2805E-03
            1328            2151     12.4052E-03     13.9959E-03
            1328            2152     16.2154E-03     18.4982E-03
            1328            2169     9.63392E-03     11.2805E-03
            1328            2170     14.1752E-03     16.7735E-03
            1329            2152     16.2154E-03     18.4982E-03
            1329            2153     21.5587E-03     24.0225E-03
            1329            2170     14.1752E-03     16.7735E-03
            1329            2171     20.1180E-03     22.7329E-03
            1330            2153     21.5587E-03     24.0225E-03
            1330            2154     27.5732E-03     29.7914E-03
            1330            2171     20.1180E-03     22.7329E-03
            1330            2172     26.5066E-03     28.9666E-03
            1331            2154     27.5732E-03     29.7914E-03
            1331            2155     33.9111E-03     35.8106E-03
            1331            2172     26.5066E-03     28.9666E-03
            1331            2173     33.0572E-03     35.3033E-03
            1332            2155     33.9111E-03     35.8106E-03
            1332            2156     40.3450E-03     42.0685E-03
            1332            2173     33.0572E-03     35.3033E-03
            1332            2174     39.6937E-03     41.7499E-03
            1333            2156     40.3450E-03     42.0685E-03
            1333            2157     46.8412E-03     48.4594E-03
            1333            2174     39.6937E-03     41.7499E-03
            1333            2175     46.3584E-03     48.3098E-03
            1334            2157     46.8412E-03     48.4594E-03
            1334            2158     53.3886E-03     54.9602E-03
            1334            2175     46.3584E-03     48.3098E-03
            1334            2176     53.0494E-03     54.9521E-03
            1335            2158     53.3886E-03     54.9602E-03
            1335            2159     59.9750E-03     61.5412E-03
            1335            2176     53.0494E-03     54.9521E-03
            1335            2177     59.7738E-03     61.6720E-03
            1336            2159     59.9750E-03     61.5412E-03
            1336            2160     66.6106E-03     68.1931E-03
            1336            2177     59.7738E-03     61.6720E-03
            1336            2178     66.5335E-03     68.4639E-03
            1337            2160     66.6106E-03     68.1931E-03
            1337            2161     73.2816E-03     74.9117E-03
            1337            2178     66.5335E-03     68.4639E-03
            1337            2179     73.3429E-03     75.3335E-03
            1338            2161     73.2816E-03     74.9117E-03
            1338            2162     79.9991E-03     81.6912E-03
            1338            2179     73.3429E-03     75.3335E-03
            1338            2180     80.1986E-03     82.2842E-03
            1339            2162     79.9991E-03     81.6912E-03
            1339            2163     86.7311E-03     88.5290E-03
            1339            2180     80.1986E-03     82.2842E-03
            1339            2181     87.1195E-03     89.3246E-03
            1340            2163     86.7311E-03     88.5290E-03
            1340            2164     93.4766E-03     95.3945E-03
            1340            2181     87.1195E-03     89.3246E-03
            1340            2182     94.0805E-03     96.4463E-03
            1341            2164     93.4766E-03     95.3945E-03
            1341            2165     100.162E-03     102.256E-03
            1341            2182     94.0805E-03     96.4463E-03
            1341            2183     101.095E-03     103.622E-03
            1342            2165     100.162E-03     102.256E-03
            1342            2166     106.697E-03     108.986E-03
            1342            2183     101.095E-03     103.622E-03
            1342            2184     108.078E-03     110.775E-03
            1343            2166     106.697E-03     108.986E-03
            1343            2167     112.999E-03     115.427E-03
            1343            2184     108.078E-03     110.775E-03
            1343            2185     114.903E-03     117.710E-03
            1344            2167     112.999E-03     115.427E-03
            1344            2168     118.777E-03     121.325E-03
            1344            2185     114.903E-03     117.710E-03
            1344            2186     121.452E-03     124.149E-03
            1345             375     124.092E-03     126.383E-03
            1345             376     127.486E-03     129.858E-03
            1345            2168     118.777E-03     121.325E-03
            1345            2186     121.452E-03     124.149E-03
            1346             420     4.60984E-03     6.49399E-03
            1346             421     7.88890E-03     8.66343E-03
            1346            2169     9.63392E-03     11.2805E-03
            1346            2187     7.04995E-03     9.42840E-03
            1347            2169     9.63392E-03     11.2805E-03
            1347            2170     14.1752E-03     16.7735E-03
            1347            2187     7.04995E-03     9.42840E-03
            1347            2188     12.6442E-03     15.5383E-03
            1348            2170     14.1752E-03     16.7735E-03
            1348            2171     20.1180E-03     22.7329E-03
            1348            2188     12.6442E-03     15.5383E-03
            1348            2189     19.0814E-03     21.9187E-03
            1349            2171     20.1180E-03     22.7329E-03
            1349            2172     26.5066E-03     28.9666E-03
            1349            2189     19.0814E-03     21.9187E-03
            1349            2190     25.7019E-03     28.3663E-03
            1350            2172     26.5066E-03     28.9666E-03
            1350            2173     33.0572E-03     35.3033E-03
            1350            2190     25.7019E-03     28.3663E-03
            1350            2191     32.3930E-03     34.8721E-03
            1351            2173     33.0572E-03     35.3033E-03
            1351            2174     39.6937E-03     41.7499E-03
            1351            2191     32.3930E-03     34.8721E-03
            1351            2192     39.1071E-03     41.4363E-03
            1352            2174     39.6937E-03     41.7499E-03
            1352            2175     46.3584E-03     48.3098E-03
            1352            2192     39.1071E-03     41.4363E-03
            1352            2193     45.8309E-03     48.0725E-03
            1353            2175     46.3584E-03     48.3098E-03
            1353            2176     53.0494E-03     54.9521E-03
            1353            2193     45.8309E-03     48.0725E-03
            1353            2194     52.5647E-03     54.7704E-03
            1354            2176     53.0494E-03     54.9521E-03
            1354            2177     59.7738E-03     61.6720E-03
            1354            2194     52.5647E-03     54.7704E-03
            1354            2195     59.3200E-03     61.5284E-03
            1355            2177     59.7738E-03     61.6720E-03
            1355            2178     66.5335E-03     68.4639E-03
            1355            2195     59.3200E-03     61.5284E-03
            1355            2196     66.1062E-03     68.3523E-03
            1356            2178     66.5335E-03     68.4639E-03
            1356            2179     73.3429E-03     75.3335E-03
            1356            2196     66.1062E-03     68.3523E-03
            1356            2197     72.9372E-03     75.2479E-03
            1357            2179     73.3429E-03     75.3335E-03
            1357            2180     80.1986E-03     82.2842E-03
            1357            2197     72.9372E-03     75.2479E-03
            1357            2198     79.8301E-03     82.2380E-03
            1358            2180     80.1986E-03     82.2842E-03
            1358            2181     87.1195E-03     89.3246E-03
            1358            2198     79.8301E-03     82.2380E-03
            1358            2199     86.8003E-03     89.3306E-03
            1359            2181     87.1195E-03     89.3246E-03
            1359            2182     94.0805E-03     96.4463E-03
            1359            2199     86.8003E-03     89.3306E-03
            1359            2200     93.8882E-03     96.5627E-03
            1360            2182     94.0805E-03     96.4463E-03
            1360            2183     101.095E-03     103.622E-03
            1360            2200     93.8882E-03     96.5627E-03
            1360            2201     101.088E-03     103.921E-03
            1361            2183     101.095E-03     103.622E-03
            1361            2184     108.078E-03     110.775E-03
            1361            2201     101.088E-03     103.921E-03
            1361            2202     108.491E-03     111.411E-03
            1362            2184     108.078E-03     110.775E-03
            1362            2185     114.903E-03     117.710E-03
            1362            2202     108.491E-03     111.411E-03
            1362            2203     115.952E-03     118.929E-03
            1363            2185     114.903E-03     117.710E-03
            1363            2186     121.452E-03     124.149E-03
            1363            2203     115.952E-03     118.929E-03
            1363            2204     123.326E-03     126.173E-03
            1364             376     127.486E-03     129.858E-03
            1364             377     130.454E-03     132.837E-03
            1364            2186     121.452E-03     124.149E-03
            1364            2204     123.326E-03     126.173E-03
            1365             419     2.36439E-03     5.64413E-03
            1365             420     4.60984E-03     6.49399E-03
            1365            2187     7.04995E-03     9.42840E-03
            1365            2205     5.45981E-03     8.69771E-03
            1366            2187     7.04995E-03     9.42840E-03
            1366            2188     12.6442E-03     15.5383E-03
            1366            2205     5.45981E-03     8.69771E-03
            1366            2206     11.8582E-03     15.0307E-03
            1367            2188     12.6442E-03     15.5383E-03
            1367            2189     19.0814E-03     21.9187E-03
            1367            2206     11.8582E-03     15.0307E-03
            1367            2207     18.4998E-03     21.5507E-03
            1368            2189     19.0814E-03     21.9187E-03
            1368            2190     25.7019E-03     28.3663E-03
            1368            2207     18.4998E-03     21.5507E-03
            1368            2208     25.2015E-03     28.0177E-03
            1369            2190     25.7019E-03     28.3663E-03
            1369            2191     32.3930E-03     34.8721E-03
            1369            2208     25.2015E-03     28.0177E-03
            1369            2209     31.9089E-03     34.5391E-03
            1370            2191     32.3930E-03     34.8721E-03
            1370            2192     39.1071E-03     41.4363E-03
            1370            2209     31.9089E-03     34.5391E-03
            1370            2210     38.5890E-03     41.1353E-03
            1371            2192     39.1071E-03     41.4363E-03
            1371            2193     45.8309E-03     48.0725E-03
            1371            2210     38.5890E-03     41.1353E-03
            1371            2211     45.2652E-03     47.7602E-03
            1372            2193     45.8309E-03     48.0725E-03
            1372            2194     52.5647E-03     54.7704E-03
            1372            2211     45.2652E-03     47.7602E-03
            1372            2212     51.9472E-03     54.4278E-03
            1373            2194     52.5647E-03     54.7704E-03
            1373            2195     59.3200E-03     61.5284E-03
            1373            2212     51.9472E-03     54.4278E-03
            1373            2213     58.6382E-03     61.1337E-03
            1374            2195     59.3200E-03     61.5284E-03
            1374            2196     66.1062E-03     68.3523E-03
            1374            2213     58.6382E-03     61.1337E-03
            1374            2214     65.3574E-03     67.8853E-03
            1375            2196     66.1062E-03     68.3523E-03
            1375            2197     72.9372E-03     75.2479E-03
            1375            2214     65.3574E-03     67.8853E-03
            1375            2215     72.1122E-03     74.7008E-03
            1376            2197     72.9372E-03     75.2479E-03
            1376            2198     79.8301E-03     82.2380E-03
            1376            2215     72.1122E-03     74.7008E-03
            1376            2216     78.9331E-03     81.5943E-03
            1377            2198     79.8301E-03     82.2380E-03
            1377            2199     86.8003E-03     89.3306E-03
            1377            2216     78.9331E-03     81.5943E-03
            1377            2217     85.8464E-03     88.6143E-03
            1378            2199     86.8003E-03     89.3306E-03
            1378            2200     93.8882E-03     96.5627E-03
            1378            2217     85.8464E-03     88.6143E-03
            1378            2218     92.9045E-03     95.7813E-03
            1379            2200     93.8882E-03     96.5627E-03
            1379            2201     101.088E-03     103.921E-03
            1379            2218     92.9045E-03     95.7813E-03
            1379            2219     100.202E-03     103.193E-03
            1380            2201     101.088E-03     103.921E-03
            1380            2202     108.491E-03     111.411E-03
            1380            2219     100.202E-03     103.193E-03
            1380            2220     107.776E-03     110.863E-03
            1381            2202     108.491E-03     111.411E-03
            1381            2203     115.952E-03     118.929E-03
            1381            2220     107.776E-03     110.863E-03
            1381            2221     115.942E-03     118.918E-03
            1382            2203     115.952E-03     118.929E-03
            1382            2204     123.326E-03     126.173E-03
            1382            2221     115.942E-03     118.918E-03
            1382            2222     124.389E-03     127.263E-03
            1383             377     130.454E-03     132.837E-03
            1383             378     132.727E-03     135.400E-03
            1383            2204     123.326E-03     126.173E-03
            1383            2222     124.389E-03     127.263E-03
            1384             418     3.28842E-03     6.16121E-03
            1384             419     2.36439E-03     5.64413E-03
            1384            2205     5.45981E-03     8.69771E-03
            1384            2223     6.04316E-03     9.30729E-03
            1385            2205     5.45981E-03     8.69771E-03
            1385            2206     11.8582E-03     15.0307E-03
            1385            2223     6.04316E-03     9.30729E-03
            1385            2224     11.9889E-03     15.4928E-03
            1386            2206     11.8582E-03     15.0307E-03
            1386            2207     18.4998E-03     21.5507E-03
            1386            2224     11.9889E-03     15.4928E-03
            1386            2225     18.5022E-03     21.6064E-03
            1387            2207     18.4998E-03     21.5507E-03
            1387            2208     25.2015E-03     28.0177E-03
            1387            2225     18.5022E-03     21.6064E-03
            1387            2226     25.0987E-03     27.9178E-03
            1388            2208     25.2015E-03     28.0177E-03
            1388            2209     31.9089E-03     34.5391E-03
            1388            2226     25.0987E-03     27.9178E-03
            1388            2227     31.6378E-03     34.3934E-03
            1389            2209     31.9089E-03     34.5391E-03
            1389            2210     38.5890E-03     41.1353E-03
            1389            2227     31.6378E-03     34.3934E-03
            1389            2228     38.1733E-03     40.9002E-03
            1390            2210     38.5890E-03     41.1353E-03
            1390            2211     45.2652E-03     47.7602E-03
            1390            2228     38.1733E-03     40.9002E-03
            1390            2229     44.7091E-03     47.4416E-03
            1391            2211     45.2652E-03     47.7602E-03
            1391            2212     51.9472E-03     54.4278E-03
            1391            2229     44.7091E-03     47.4416E-03
            1391            2230     51.2459E-03     53.9941E-03
            1392            2212     51.9472E-03     54.4278E-03
            1392            2213     58.6382E-03     61.1337E-03
            1392            2230     51.2459E-03     53.9941E-03
            1392            2231     57.7981E-03     60.5645E-03
            1393            2213     58.6382E-03     61.1337E-03
            1393            2214     65.3574E-03     67.8853E-03
            1393            2231     57.7981E-03     60.5645E-03
            1393            2232     64.3624E-03     67.1592E-03
            1394            2214     65.3574E-03     67.8853E-03
            1394            2215     72.1122E-03     74.7008E-03
            1394            2232     64.3624E-03     67.1592E-03
            1394            2233     70.9659E-03     73.7904E-03
            1395            2215     72.1122E-03     74.7008E-03
            1395            2216     78.9331E-03     81.5943E-03
            1395            2233     70.9659E-03     73.7904E-03
            1395            2234     77.6160E-03     80.4902E-03
            1396            2216     78.9331E-03     81.5943E-03
            1396            2217     85.8464E-03     88.6143E-03
            1396            2234     77.6160E-03     80.4902E-03
            1396            2235     84.3720E-03     87.2881E-03
            1397            2217     85.8464E-03     88.6143E-03
            1397            2218     92.9045E-03     95.7813E-03
            1397            2235     84.3720E-03     87.2881E-03
            1397            2236     91.2779E-03     94.2699E-03
            1398            2218     92.9045E-03     95.7813E-03
            1398            2219     100.202E-03     103.193E-03
            1398            2236     91.2779E-03     94.2699E-03
            1398            2237     98.4581E-03     101.501E-03
            1399            2219     100.202E-03     103.193E-03
            1399            2220     107.776E-03     110.863E-03
            1399            2237     98.4581E-03     101.501E-03
            1399            2238     106.098E-03     109.190E-03
            1400            2220     107.776E-03     110.863E-03
            1400            2221     115.942E-03     118.918E-03
            1400            2238     106.098E-03     109.190E-03
            1400            2239     114.361E-03     117.455E-03
            1401            2221     115.942E-03     118.918E-03
            1401            2222     124.389E-03     127.263E-03
            1401            2239     114.361E-03     117.455E-03
            1401            2240     124.068E-03     126.767E-03
            1402             378     132.727E-03     135.400E-03
            1402             379     134.454E-03     136.828E-03
            1402            2222     124.389E-03     127.263E-03
            1402            2240     124.068E-03     126.767E-03
            1403             417     6.70993E-03     9.55199E-03
            1403             418     3.28842E-03     6.16121E-03
            1403            2223     6.04316E-03     9.30729E-03
            1403            2241     8.45852E-03     11.7856E-03
            1404            2223     6.04316E-03     9.30729E-03
            1404            2224     11.9889E-03     15.4928E-03
            1404            2241     8.45852E-03     11.7856E-03
            1404            2242     13.2089E-03     16.5410E-03
            1405            2224     11.9889E-03     15.4928E-03
            1405            2225     18.5022E-03     21.6064E-03
            1405            2242     13.2089E-03     16.5410E-03
            1405            2243     19.2743E-03     22.0770E-03
            1406            2225     18.5022E-03     21.6064E-03
            1406            2226     25.0987E-03     27.9178E-03
            1406            2243     19.2743E-03     22.0770E-03
            1406            2244     25.4338E-03     28.2109E-03
            1407            2226     25.0987E-03     27.9178E-03
            1407            2227     31.6378E-03     34.3934E-03
            1407            2244     25.4338E-03     28.2109E-03
            1407            2245     31.6596E-03     34.5019E-03
            1408            2227     31.6378E-03     34.3934E-03
            1408            2228     38.1733E-03     40.9002E-03
            1408            2245     31.6596E-03     34.5019E-03
            1408            2246     37.9318E-03     40.8540E-03
            1409            2228     38.1733E-03     40.9002E-03
            1409            2229     44.7091E-03     47.4416E-03
            1409            2246     37.9318E-03     40.8540E-03
            1409            2247     44.2327E-03     47.2175E-03
            1410            2229     44.7091E-03     47.4416E-03
            1410            2230     51.2459E-03     53.9941E-03
            1410            2247     44.2327E-03     47.2175E-03
            1410            2248     50.5575E-03     53.5837E-03
            1411            2230     51.2459E-03     53.9941E-03
            1411            2231     57.7981E-03     60.5645E-03
            1411            2248     50.5575E-03     53.5837E-03
            1411            2249     56.8923E-03     59.9458E-03
            1412            2231     57.7981E-03     60.5645E-03
            1412            2232     64.3624E-03     67.1592E-03
            1412            2249     56.8923E-03     59.9458E-03
            1412            2250     63.2487E-03     66.3091E-03
            1413            2232     64.3624E-03     67.1592E-03
            1413            2233     70.9659E-03     73.7904E-03
            1413            2250     63.2487E-03     66.3091E-03
            1413            2251     69.6215E-03     72.6849E-03
            1414            2233     70.9659E-03     73.7904E-03
            1414            2234     77.6160E-03     80.4902E-03
            1414            2251     69.6215E-03     72.6849E-03
            1414            2252     76.0499E-03     79.0956E-03
            1415            2234     77.6160E-03     80.4902E-03
            1415            2235     84.3720E-03     87.2881E-03
            1415            2252     76.0499E-03     79.0956E-03
            1415            2253     82.5472E-03     85.5849E-03
            1416            2235     84.3720E-03     87.2881E-03
            1416            2236     91.2779E-03     94.2699E-03
            1416            2253     82.5472E-03     85.5849E-03
            1416            2254     89.2161E-03     92.2195E-03
            1417            2236     91.2779E-03     94.2699E-03
            1417            2237     98.4581E-03     101.501E-03
            1417            2254     89.2161E-03     92.2195E-03
            1417            2255     96.1221E-03     99.1251E-03
            1418            2237     98.4581E-03     101.501E-03
            1418            2238     106.098E-03     109.190E-03
            1418            2255     96.1221E-03     99.1251E-03
            1418            2256     103.522E-03     106.484E-03
            1419            2238     106.098E-03     109.190E-03
            1419            2239     114.361E-03     117.455E-03
            1419            2256     103.522E-03     106.484E-03
            1419            2257     111.678E-03     114.650E-03
            1420            2239     114.361E-03     117.455E-03
            1420            2240     124.068E-03     126.767E-03
            1420            2257     111.678E-03     114.650E-03
            1420            2258     121.155E-03     124.050E-03
            1421             379     134.454E-03     136.828E-03
            1421             380     133.892E-03     135.984E-03
            1421            2240     124.068E-03     126.767E-03
            1421            2258     121.155E-03     124.050E-03
            1422             416     9.74756E-03     13.3675E-03
            1422             417     6.70993E-03     9.55199E-03
            1422            2241     8.45852E-03     11.7856E-03
            1422            2259     11.5141E-03     14.4378E-03
            1423            2241     8.45852E-03     11.7856E-03
            1423            2242     13.2089E-03     16.5410E-03
            1423            2259     11.5141E-03     14.4378E-03
            1423            2260     15.6822E-03     17.8928E-03
            1424            2242     13.2089E-03     16.5410E-03
            1424            2243     19.2743E-03     22.0770E-03
            1424            2260     15.6822E-03     17.8928E-03
            1424            2261     20.7804E-03     23.1411E-03
            1425            2243     19.2743E-03     22.0770E-03
            1425            2244     25.4338E-03     28.2109E-03
            1425            2261     20.7804E-03     23.1411E-03
            1425            2262     26.2988E-03     28.9914E-03
            1426            2244     25.4338E-03     28.2109E-03
            1426            2245     31.6596E-03     34.5019E-03
            1426            2262     26.2988E-03     28.9914E-03
            1426            2263     32.0506E-03     35.0185E-03
            1427            2245     31.6596E-03     34.5019E-03
            1427            2246     37.9318E-03     40.8540E-03
            1427            2263     32.0506E-03     35.0185E-03
            1427            2264     37.9581E-03     41.1146E-03
            1428            2246     37.9318E-03     40.8540E-03
            1428            2247     44.2327E-03     47.2175E-03
            1428            2264     37.9581E-03     41.1146E-03
            1428            2265     43.9495E-03     47.2269E-03
            1429            2247     44.2327E-03     47.2175E-03
            1429            2248     50.5575E-03     53.5837E-03
            1429            2265     43.9495E-03     47.2269E-03
            1429            2266     49.9907E-03     53.3343E-03
            1430            2248     50.5575E-03     53.5837E-03
            1430            2249     56.8923E-03     59.9458E-03
            1430            2266     49.9907E-03     53.3343E-03
            1430            2267     56.0619E-03     59.4296E-03
            1431            2249     56.8923E-03     59.9458E-03
            1431            2250     63.2487E-03     66.3091E-03
            1431            2267     56.0619E-03     59.4296E-03
            1431            2268     62.1469E-03     65.5067E-03
            1432            2250     63.2487E-03     66.3091E-03
            1432            2251     69.6215E-03     72.6849E-03
            1432            2268     62.1469E-03     65.5067E-03
            1432            2269     68.2587E-03     71.5756E-03
            1433            2251     69.6215E-03     72.6849E-03
            1433            2252     76.0499E-03     79.0956E-03
            1433            2269     68.2587E-03     71.5756E-03
            1433            2270     74.3976E-03     77.6452E-03
            1434            2252     76.0499E-03     79.0956E-03
            1434            2253     82.5472E-03     85.5849E-03
            1434            2270     74.3976E-03     77.6452E-03
            1434            2271     80.6205E-03     83.7601E-03
            1435            2253     82.5472E-03     85.5849E-03
            1435            2254     89.2161E-03     92.2195E-03
            1435            2271     80.6205E-03     83.7601E-03
            1435            2272     86.9553E-03     89.9633E-03
            1436            2254     89.2161E-03     92.2195E-03
            1436            2255     96.1221E-03     99.1251E-03
            1436            2272     86.9553E-03     89.9633E-03
            1436            2273     93.5574E-03     96.3996E-03
            1437            2255     96.1221E-03     99.1251E-03
            1437            2256     103.522E-03     106.484E-03
            1437            2273     93.5574E-03     96.3996E-03
            1437            2274     100.510E-03     103.196E-03
            1438            2256     103.522E-03     106.484E-03
            1438            2257     111.678E-03     114.650E-03
            1438            2274     100.510E-03     103.196E-03
            1438            2275     108.269E-03     110.815E-03
            1439            2257     111.678E-03     114.650E-03
            1439            2258     121.155E-03     124.050E-03
            1439            2275     108.269E-03     110.815E-03
            1439            2276     117.045E-03     119.602E-03
            1440             380     133.892E-03     135.984E-03
            1440             381     128.759E-03     131.524E-03
            1440            2258     121.155E-03     124.050E-03
            1440            2276     117.045E-03     119.602E-03
            1441             415     14.7800E-03     18.7243E-03
            1441             416     9.74756E-03     13.3675E-03
            1441            2259     11.5141E-03     14.4378E-03
            1441            2277     17.0927E-03     19.5709E-03
            1442            2259     11.5141E-03     14.4378E-03
            1442            2260     15.6822E-03     17.8928E-03
            1442            2277     17.0927E-03     19.5709E-03
            1442            2278     21.6287E-03     22.6899E-03
            1443            2260     15.6822E-03     17.8928E-03
            1443            2261     20.7804E-03     23.1411E-03
            1443            2278     21.6287E-03     22.6899E-03
            1443            2279     26.5225E-03     27.8884E-03
            1444            2261     20.7804E-03     23.1411E-03
            1444            2262     26.2988E-03     28.9914E-03
            1444            2279     26.5225E-03     27.8884E-03
            1444            2280     32.1232E-03     33.9258E-03
            1445            2262     26.2988E-03     28.9914E-03
            1445            2263     32.0506E-03     35.0185E-03
            1445            2280     32.1232E-03     33.9258E-03
            1445            2281     38.1633E-03     40.2403E-03
            1446            2263     32.0506E-03     35.0185E-03
            1446            2264     37.9581E-03     41.1146E-03
            1446            2281     38.1633E-03     40.2403E-03
            1446            2282     44.4834E-03     46.7110E-03
            1447            2264     37.9581E-03     41.1146E-03
            1447            2265     43.9495E-03     47.2269E-03
            1447            2282     44.4834E-03     46.7110E-03
            1447            2283     50.9551E-03     53.2619E-03
            1448            2265     43.9495E-03     47.2269E-03
            1448            2266     49.9907E-03     53.3343E-03
            1448            2283     50.9551E-03     53.2619E-03
            1448            2284     57.5172E-03     59.8380E-03
            1449            2266     49.9907E-03     53.3343E-03
            1449            2267     56.0619E-03     59.4296E-03
            1449            2284     57.5172E-03     59.8380E-03
            1449            2285     64.1106E-03     66.4282E-03
            1450            2267     56.0619E-03     59.4296E-03
            1450            2268     62.1469E-03     65.5067E-03
            1450            2285     64.1106E-03     66.4282E-03
            1450            2286     70.7207E-03     72.9895E-03
            1451            2268     62.1469E-03     65.5067E-03
            1451            2269     68.2587E-03     71.5756E-03
            1451            2286     70.7207E-03     72.9895E-03
            1451            2287     77.3082E-03     79.5282E-03
            1452            2269     68.2587E-03     71.5756E-03
            1452            2270     74.3976E-03     77.6452E-03
            1452            2287     77.3082E-03     79.5282E-03
            1452            2288     83.8953E-03     86.0000E-03
            1453            2270     74.3976E-03     77.6452E-03
            1453            2271     80.6205E-03     83.7601E-03
            1453            2288     83.8953E-03     86.0000E-03
            1453            2289     90.4386E-03     92.4272E-03
            1454            2271     80.6205E-03     83.7601E-03
            1454            2272     86.9553E-03     89.9633E-03
            1454            2289     90.4386E-03     92.4272E-03
            1454            2290     97.0144E-03     98.7716E-03
            1455            2272     86.9553E-03     89.9633E-03
            1455            2273     93.5574E-03     96.3996E-03
            1455            2290     97.0144E-03     98.7716E-03
            1455            2291     103.546E-03     105.076E-03
            1456            2273     93.5574E-03     96.3996E-03
            1456            2274     100.510E-03     103.196E-03
            1456            2291     103.546E-03     105.076E-03
            1456            2292     110.235E-03     111.360E-03
            1457            2274     100.510E-03     103.196E-03
            1457            2275     108.269E-03     110.815E-03
            1457            2292     110.235E-03     111.360E-03
            1457            2293     116.925E-03     117.743E-03
            1458            2275     108.269E-03     110.815E-03
            1458            2276     117.045E-03     119.602E-03
            1458            2293     116.925E-03     117.743E-03
            1458            2294     124.193E-03     124.571E-03
            1459             381     128.759E-03     131.524E-03
            1459             382     131.836E-03     132.300E-03
            1459            2276     117.045E-03     119.602E-03
            1459            2294     124.193E-03     124.571E-03
            1460             414     17.1865E-03     21.8364E-03
            1460             415     14.7800E-03     18.7243E-03
            1460            2277     17.0927E-03     19.5709E-03
            1460            2295     19.0809E-03     22.4432E-03
            1461            2277     17.0927E-03     19.5709E-03
            1461            2278     21.6287E-03     22.6899E-03
            1461            2295     19.0809E-03     22.4432E-03
            1461            2296     23.7067E-03     25.3383E-03
            1462            2278     21.6287E-03     22.6899E-03
            1462            2279     26.5225E-03     27.8884E-03
            1462            2296     23.7067E-03     25.3383E-03
            1462            2297     29.5830E-03     30.7546E-03
            1463            2279     26.5225E-03     27.8884E-03
            1463            2280     32.1232E-03     33.9258E-03
            1463            2297     29.5830E-03     30.7546E-03
            1463            2298     36.0845E-03     37.2826E-03
            1464            2280     32.1232E-03     33.9258E-03
            1464            2281     38.1633E-03     40.2403E-03
            1464            2298     36.0845E-03     37.2826E-03
            1464            2299     42.9855E-03     44.2559E-03
            1465            2281     38.1633E-03     40.2403E-03
            1465            2282     44.4834E-03     46.7110E-03
            1465            2299     42.9855E-03     44.2559E-03
            1465            2300     50.1541E-03     51.4653E-03
            1466            2282     44.4834E-03     46.7110E-03
            1466            2283     50.9551E-03     53.2619E-03
            1466            2300     50.1541E-03     51.4653E-03
            1466            2301     57.4731E-03     58.7865E-03
            1467            2283     50.9551E-03     53.2619E-03
            1467            2284     57.5172E-03     59.8380E-03
            1467            2301     57.4731E-03     58.7865E-03
            1467            2302     64.8852E-03     66.1782E-03
            1468            2284     57.5172E-03     59.8380E-03
            1468            2285     64.1106E-03     66.4282E-03
            1468            2302     64.8852E-03     66.1782E-03
            1468            2303     72.3326E-03     73.5959E-03
            1469            2285     64.1106E-03     66.4282E-03
            1469            2286     70.7207E-03     72.9895E-03
            1469            2303     72.3326E-03     73.5959E-03
            1469            2304     79.7949E-03     81.0136E-03
            1470            2286     70.7207E-03     72.9895E-03
            1470            2287     77.3082E-03     79.5282E-03
            1470            2304     79.7949E-03     81.0136E-03
            1470            2305     87.2352E-03     88.4077E-03
            1471            2287     77.3082E-03     79.5282E-03
            1471            2288     83.8953E-03     86.0000E-03
            1471            2305     87.2352E-03     88.4077E-03
            1471            2306     94.6478E-03     95.7437E-03
            1472            2288     83.8953E-03     86.0000E-03
            1472            2289     90.4386E-03     92.4272E-03
            1472            2306     94.6478E-03     95.7437E-03
            1472            2307     101.996E-03     103.007E-03
            1473            2289     90.4386E-03     92.4272E-03
            1473            2290     97.0144E-03     98.7716E-03
            1473            2307     101.996E-03     103.007E-03
            1473            2308     109.267E-03     110.130E-03
            1474            2290     97.0144E-03     98.7716E-03
            1474            2291     103.546E-03     105.076E-03
            1474            2308     109.267E-03     110.130E-03
            1474            2309     116.419E-03     117.104E-03
            1475            2291     103.546E-03     105.076E-03
            1475            2292     110.235E-03     111.360E-03
            1475            2309     116.419E-03     117.104E-03
            1475            2310     123.346E-03     123.794E-03
            1476            2292     110.235E-03     111.360E-03
            1476            2293     116.925E-03     117.743E-03
            1476            2310     123.346E-03     123.794E-03
            1476            2311     130.065E-03     130.202E-03
            1477            2293     116.925E-03     117.743E-03
            1477            2294     124.193E-03     124.571E-03
            1477            2311     130.065E-03     130.202E-03
            1477            2312     136.206E-03     136.163E-03
            1478             382     131.836E-03     132.300E-03
            1478             383     142.121E-03     141.923E-03
            1478            2294     124.193E-03     124.571E-03
            1478            2312     136.206E-03     136.163E-03
            1479             413     13.7677E-03     15.7158E-03
            1479             414     17.1865E-03     21.8364E-03
            1479            2295     19.0809E-03     22.4432E-03
            1479            2313     15.1177E-03     17.9939E-03
            1480            2295     19.0809E-03     22.4432E-03
            1480            2296     23.7067E-03     25.3383E-03
            1480            2313     15.1177E-03     17.9939E-03
            1480            2314     19.6736E-03     22.7965E-03
            1481            2296     23.7067E-03     25.3383E-03
            1481            2297     29.5830E-03     30.7546E-03
            1481            2314     19.6736E-03     22.7965E-03
            1481            2315     26.4859E-03     28.6154E-03
            1482            2297     29.5830E-03     30.7546E-03
            1482            2298     36.0845E-03     37.2826E-03
            1482            2315     26.4859E-03     28.6154E-03
            1482            2316     33.7710E-03     35.5346E-03
            1483            2298     36.0845E-03     37.2826E-03
            1483            2299     42.9855E-03     44.2559E-03
            1483            2316     33.7710E-03     35.5346E-03
            1483            2317     41.2246E-03     42.8981E-03
            1484            2299     42.9855E-03     44.2559E-03
            1484            2300     50.1541E-03     51.4653E-03
            1484            2317     41.2246E-03     42.8981E-03
            1484            2318     48.8162E-03     50.4528E-03
            1485            2300     50.1541E-03     51.4653E-03
            1485            2301     57.4731E-03     58.7865E-03
            1485            2318     48.8162E-03     50.4528E-03
            1485            2319     56.4857E-03     58.1194E-03
            1486            2301     57.4731E-03     58.7865E-03
            1486            2302     64.8852E-03     66.1782E-03
            1486            2319     56.4857E-03     58.1194E-03
            1486            2320     64.2114E-03     65.8430E-03
            1487            2302     64.8852E-03     66.1782E-03
            1487            2303     72.3326E-03     73.5959E-03
            1487            2320     64.2114E-03     65.8430E-03
            1487            2321     71.9786E-03     73.6020E-03
            1488            2303     72.3326E-03     73.5959E-03
            1488            2304     79.7949E-03     81.0136E-03
            1488            2321     71.9786E-03     73.6020E-03
            1488            2322     79.7724E-03     81.3850E-03
            1489            2304     79.7949E-03     81.0136E-03
            1489            2305     87.2352E-03     88.4077E-03
            1489            2322     79.7724E-03     81.3850E-03
            1489            2323     87.5940E-03     89.1846E-03
            1490            2305     87.2352E-03     88.4077E-03
            1490            2306     94.6478E-03     95.7437E-03
            1490            2323     87.5940E-03     89.1846E-03
            1490            2324     95.4292E-03     97.0034E-03
            1491            2306     94.6478E-03     95.7437E-03
            1491            2307     101.996E-03     103.007E-03
            1491            2324     95.4292E-03     97.0034E-03
            1491            2325     103.290E-03     104.837E-03
            1492            2307     101.996E-03     103.007E-03
            1492            2308     109.267E-03     110.130E-03
            1492            2325     103.290E-03     104.837E-03
            1492            2326     111.147E-03     112.691E-03
            1493            2308     109.267E-03     110.130E-03
            1493            2309     116.419E-03     117.104E-03
            1493            2326     111.147E-03     112.691E-03
            1493            2327     119.006E-03     120.551E-03
            1494            2309     116.419E-03     117.104E-03
            1494            2310     123.346E-03     123.794E-03
            1494            2327     119.006E-03     120.551E-03
            1494            2328     126.788E-03     128.393E-03
            1495            2310     123.346E-03     123.794E-03
            1495            2311     130.065E-03     130.202E-03
            1495            2328     126.788E-03     128.393E-03
            1495            2329     134.359E-03     136.132E-03
            1496            2311     130.065E-03     130.202E-03
            1496            2312     136.206E-03     136.163E-03
            1496            2329     134.359E-03     136.132E-03
            1496            2330     141.607E-03     143.551E-03
            1497             383     142.121E-03     141.923E-03
            1497             384     148.548E-03     150.558E-03
            1497            2312     136.206E-03     136.163E-03
            1497            2330     141.607E-03     143.551E-03
            1498             412     8.75642E-03     10.2898E-03
            1498             413     13.7677E-03     15.7158E-03
            1498            2313     15.1177E-03     17.9939E-03
            1498            2331     11.0474E-03     13.5755E-03
            1499            2313     15.1177E-03     17.9939E-03
            1499            2314     19.6736E-03     22.7965E-03
            1499            2331     11.0474E-03     13.5755E-03
            1499            2332     16.8345E-03     20.2105E-03
            1500            2314     19.6736E-03     22.7965E-03
            1500            2315     26.4859E-03     28.6154E-03
            1500            2332     16.8345E-03     20.2105E-03
            1500            2333     24.2162E-03     27.0955E-03
            1501            2315     26.4859E-03     28.6154E-03
            1501            2316     33.7710E-03     35.5346E-03
            1501            2333     24.2162E-03     27.0955E-03
            1501            2334     32.0421E-03     34.4092E-03
            1502            2316     33.7710E-03     35.5346E-03
            1502            2317     41.2246E-03     42.8981E-03
            1502            2334     32.0421E-03     34.4092E-03
            1502            2335     39.9231E-03     42.0532E-03
            1503            2317     41.2246E-03     42.8981E-03
            1503            2318     48.8162E-03     50.4528E-03
            1503            2335     39.9231E-03     42.0532E-03
            1503            2336     47.8246E-03     49.8559E-03
            1504            2318     48.8162E-03     50.4528E-03
            1504            2319     56.4857E-03     58.1194E-03
            1504            2336     47.8246E-03     49.8559E-03
            1504            2337     55.7471E-03     57.7554E-03
            1505            2319     56.4857E-03     58.1194E-03
            1505            2320     64.2114E-03     65.8430E-03
            1505            2337     55.7471E-03     57.7554E-03
            1505            2338     63.6958E-03     65.7034E-03
            1506            2320     64.2114E-03     65.8430E-03
            1506            2321     71.9786E-03     73.6020E-03
            1506            2338     63.6958E-03     65.7034E-03
            1506            2339     71.6768E-03     73.6932E-03
            1507            2321     71.9786E-03     73.6020E-03
            1507            2322     79.7724E-03     81.3850E-03
            1507            2339     71.6768E-03     73.6932E-03
            1507            2340     79.6944E-03     81.7184E-03
            1508            2322     79.7724E-03     81.3850E-03
            1508            2323     87.5940E-03     89.1846E-03
            1508            2340     79.6944E-03     81.7184E-03
            1508            2341     87.7510E-03     89.7896E-03
            1509            2323     87.5940E-03     89.1846E-03
            1509            2324     95.4292E-03     97.0034E-03
            1509            2341     87.7510E-03     89.7896E-03
            1509            2342     95.8609E-03     97.9205E-03
            1510            2324     95.4292E-03     97.0034E-03
            1510            2325     103.290E-03     104.837E-03
            1510            2342     95.8609E-03     97.9205E-03
            1510            2343     104.018E-03     106.129E-03
            1511            2325     103.290E-03     104.837E-03
            1511            2326     111.147E-03     112.691E-03
            1511            2343     104.018E-03     106.129E-03
            1511            2344     112.261E-03     114.454E-03
            1512            2326     111.147E-03     112.691E-03
            1512            2327     119.006E-03     120.551E-03
            1512            2344     112.261E-03     114.454E-03
            1512            2345     120.540E-03     122.900E-03
            1513            2327     119.006E-03     120.551E-03
            1513            2328     126.788E-03     128.393E-03
            1513            2345     120.540E-03     122.900E-03
            1513            2346     128.961E-03     131.510E-03
            1514            2328     126.788E-03     128.393E-03
            1514            2329     134.359E-03     136.132E-03
            1514            2346     128.961E-03     131.510E-03
            1514            2347     137.283E-03     140.184E-03
            1515            2329     134.359E-03     136.132E-03
            1515            2330     141.607E-03     143.551E-03
            1515            2347     137.283E-03     140.184E-03
            1515            2348     145.501E-03     148.637E-03
            1516             384     148.548E-03     150.558E-03
            1516             385     153.077E-03     156.109E-03
            1516            2330     141.607E-03     143.551E-03
            1516            2348     145.501E-03     148.637E-03
            1517             411     4.28783E-03     8.06518E-03
            1517             412     8.75642E-03     10.2898E-03
            1517            2331     11.0474E-03     13.5755E-03
            1517            2349     7.70935E-03     11.2609E-03
            1518            2331     11.0474E-03     13.5755E-03
            1518            2332     16.8345E-03     20.2105E-03
            1518            2349     7.70935E-03     11.2609E-03
            1518            2350     14.9918E-03     18.4407E-03
            1519            2332     16.8345E-03     20.2105E-03
            1519            2333     24.2162E-03     27.0955E-03
            1519            2350     14.9918E-03     18.4407E-03
            1519            2351     22.8813E-03     26.1992E-03
            1520            2333     24.2162E-03     27.0955E-03
            1520            2334     32.0421E-03     34.4092E-03
            1520            2351     22.8813E-03     26.1992E-03
            1520            2352     30.9859E-03     33.8157E-03
            1521            2334     32.0421E-03     34.4092E-03
            1521            2335     39.9231E-03     42.0532E-03
            1521            2352     30.9859E-03     33.8157E-03
            1521            2353     39.0951E-03     41.6286E-03
            1522            2335     39.9231E-03     42.0532E-03
            1522            2336     47.8246E-03     49.8559E-03
            1522            2353     39.0951E-03     41.6286E-03
            1522            2354     47.1449E-03     49.5855E-03
            1523            2336     47.8246E-03     49.8559E-03
            1523            2337     55.7471E-03     57.7554E-03
            1523            2354     47.1449E-03     49.5855E-03
            1523            2355     55.1888E-03     57.5943E-03
            1524            2337     55.7471E-03     57.7554E-03
            1524            2338     63.6958E-03     65.7034E-03
            1524            2355     55.1888E-03     57.5943E-03
            1524            2356     63.2406E-03     65.6532E-03
            1525            2338     63.6958E-03     65.7034E-03
            1525            2339     71.6768E-03     73.6932E-03
            1525            2356     63.2406E-03     65.6532E-03
            1525            2357     71.3123E-03     73.7407E-03
            1526            2339     71.6768E-03     73.6932E-03
            1526            2340     79.6944E-03     81.7184E-03
            1526            2357     71.3123E-03     73.7407E-03
            1526            2358     79.4158E-03     81.8680E-03
            1527            2340     79.6944E-03     81.7184E-03
            1527            2341     87.7510E-03     89.7896E-03
            1527            2358     79.4158E-03     81.8680E-03
            1527            2359     87.5605E-03     90.0422E-03
            1528            2341     87.7510E-03     89.7896E-03
            1528            2342     95.8609E-03     97.9205E-03
            1528            2359     87.5605E-03     90.0422E-03
            1528            2360     95.7533E-03     98.2842E-03
            1529            2342     95.8609E-03     97.9205E-03
            1529            2343     104.018E-03     106.129E-03
            1529            2360     95.7533E-03     98.2842E-03
            1529            2361     104.020E-03     106.630E-03
            1530            2343     104.018E-03     106.129E-03
            1530            2344     112.261E-03     114.454E-03
            1530            2361     104.020E-03     106.630E-03
            1530            2362     112.358E-03     115.107E-03
            1531            2344     112.261E-03     114.454E-03
            1531            2345     120.540E-03     122.900E-03
            1531            2362     112.358E-03     115.107E-03
            1531            2363     120.866E-03     123.803E-03
            1532            2345     120.540E-03     122.900E-03
            1532            2346     128.961E-03     131.510E-03
            1532            2363     120.866E-03     123.803E-03
            1532            2364     129.464E-03     132.718E-03
            1533            2346     128.961E-03     131.510E-03
            1533            2347     137.283E-03     140.184E-03
            1533            2364     129.464E-03     132.718E-03
            1533            2365     138.526E-03     141.935E-03
            1534            2347     137.283E-03     140.184E-03
            1534            2348     145.501E-03     148.637E-03
            1534            2365     138.526E-03     141.935E-03
            1534            2366     147.526E-03     151.202E-03
            1535             385     153.077E-03     156.109E-03
            1535             386     155.891E-03     159.679E-03
            1535            2348     145.501E-03     148.637E-03
            1535            2366     147.526E-03     151.202E-03
            1536             410     3.63489E-03     6.52555E-03
            1536             411     4.28783E-03     8.06518E-03
            1536            2349     7.70935E-03     11.2609E-03
            1536            2367     6.96466E-03     10.6770E-03
            1537            2349     7.70935E-03     11.2609E-03
            1537            2350     14.9918E-03     18.4407E-03
            1537            2367     6.96466E-03     10.6770E-03
            1537            2368     14.3803E-03     18.4678E-03
            1538            2350     14.9918E-03     18.4407E-03
            1538            2351     22.8813E-03     26.1992E-03
            1538            2368     14.3803E-03     18.4678E-03
            1538            2369     22.5542E-03     25.9458E-03
            1539            2351     22.8813E-03     26.1992E-03
            1539            2352     30.9859E-03     33.8157E-03
            1539            2369     22.5542E-03     25.9458E-03
            1539            2370     30.6771E-03     33.7211E-03
            1540            2352     30.9859E-03     33.8157E-03
            1540            2353     39.0951E-03     41.6286E-03
            1540            2370     30.6771E-03     33.7211E-03
            1540            2371     38.7343E-03     41.6193E-03
            1541            2353     39.0951E-03     41.6286E-03
            1541            2354     47.1449E-03     49.5855E-03
            1541            2371     38.7343E-03     41.6193E-03
            1541            2372     46.7704E-03     49.5867E-03
            1542            2354     47.1449E-03     49.5855E-03
            1542            2355     55.1888E-03     57.5943E-03
            1542            2372     46.7704E-03     49.5867E-03
            1542            2373     54.7903E-03     57.6062E-03
            1543            2355     55.1888E-03     57.5943E-03
            1543            2356     63.2406E-03     65.6532E-03
            1543            2373     54.7903E-03     57.6062E-03
            1543            2374     62.8129E-03     65.6441E-03
            1544            2356     63.2406E-03     65.6532E-03
            1544            2357     71.3123E-03     73.7407E-03
            1544            2374     62.8129E-03     65.6441E-03
            1544            2375     70.8483E-03     73.7059E-03
            1545            2357     71.3123E-03     73.7407E-03
            1545            2358     79.4158E-03     81.8680E-03
            1545            2375     70.8483E-03     73.7059E-03
            1545            2376     78.9018E-03     81.7854E-03
            1546            2358     79.4158E-03     81.8680E-03
            1546            2359     87.5605E-03     90.0422E-03
            1546            2376     78.9018E-03     81.7854E-03
            1546            2377     86.9806E-03     89.8972E-03
            1547            2359     87.5605E-03     90.0422E-03
            1547            2360     95.7533E-03     98.2842E-03
            1547            2377     86.9806E-03     89.8972E-03
            1547            2378     95.0939E-03     98.0550E-03
            1548            2360     95.7533E-03     98.2842E-03
            1548            2361     104.020E-03     106.630E-03
            1548            2378     95.0939E-03     98.0550E-03
            1548            2379     103.254E-03     106.285E-03
            1549            2361     104.020E-03     106.630E-03
            1549            2362     112.358E-03     115.107E-03
            1549            2379     103.254E-03     106.285E-03
            1549            2380     111.498E-03     114.642E-03
            1550            2362     112.358E-03     115.107E-03
            1550            2363     120.866E-03     123.803E-03
            1550            2380     111.498E-03     114.642E-03
            1550            2381     119.855E-03     123.173E-03
            1551            2363     120.866E-03     123.803E-03
            1551            2364     129.464E-03     132.718E-03
            1551            2381     119.855E-03     123.173E-03
            1551            2382     128.506E-03     132.027E-03
            1552            2364     129.464E-03     132.718E-03
            1552            2365     138.526E-03     141.935E-03
            1552            2382     128.506E-03     132.027E-03
            1552            2383     137.454E-03     141.241E-03
            1553            2365     138.526E-03     141.935E-03
            1553            2366     147.526E-03     151.202E-03
            1553            2383     137.454E-03     141.241E-03
            1553            2384     147.479E-03     151.115E-03
            1554             386     155.891E-03     159.679E-03
            1554             387     157.796E-03     161.026E-03
            1554            2366     147.526E-03     151.202E-03
            1554            2384     147.479E-03     151.115E-03
            1555             409     6.52661E-03     10.2079E-03
            1555             410     3.63489E-03     6.52555E-03
            1555            2367     6.96466E-03     10.6770E-03
            1555            2385     9.12831E-03     13.1715E-03
            1556            2367     6.96466E-03     10.6770E-03
            1556            2368     14.3803E-03     18.4678E-03
            1556            2385     9.12831E-03     13.1715E-03
            1556            2386     15.5731E-03     19.4553E-03
            1557            2368     14.3803E-03     18.4678E-03
            1557            2369     22.5542E-03     25.9458E-03
            1557            2386     15.5731E-03     19.4553E-03
            1557            2387     23.3044E-03     26.5398E-03
            1558            2369     22.5542E-03     25.9458E-03
            1558            2370     30.6771E-03     33.7211E-03
            1558            2387     23.3044E-03     26.5398E-03
            1558            2388     31.0779E-03     34.2078E-03
            1559            2370     30.6771E-03     33.7211E-03
            1559            2371     38.7343E-03     41.6193E-03
            1559            2388     31.0779E-03     34.2078E-03
            1559            2389     38.8774E-03     42.0355E-03
            1560            2371     38.7343E-03     41.6193E-03
            1560            2372     46.7704E-03     49.5867E-03
            1560            2389     38.8774E-03     42.0355E-03
            1560            2390     46.7196E-03     49.9071E-03
            1561            2372     46.7704E-03     49.5867E-03
            1561            2373     54.7903E-03     57.6062E-03
            1561            2390     46.7196E-03     49.9071E-03
            1561            2391     54.5802E-03     57.8065E-03
            1562            2373     54.7903E-03     57.6062E-03
            1562            2374     62.8129E-03     65.6441E-03
            1562            2391     54.5802E-03     57.8065E-03
            1562            2392     62.4517E-03     65.7158E-03
            1563            2374     62.8129E-03     65.6441E-03
            1563            2375     70.8483E-03     73.7059E-03
            1563            2392     62.4517E-03     65.7158E-03
            1563            2393     70.3298E-03     73.6233E-03
            1564            2375     70.8483E-03     73.7059E-03
            1564            2376     78.9018E-03     81.7854E-03
            1564            2393     70.3298E-03     73.6233E-03
            1564            2394     78.2089E-03     81.5305E-03
            1565            2376     78.9018E-03     81.7854E-03
            1565            2377     86.9806E-03     89.8972E-03
            1565            2394     78.2089E-03     81.5305E-03
            1565            2395     86.0880E-03     89.4303E-03
            1566            2377     86.9806E-03     89.8972E-03
            1566            2378     95.0939E-03     98.0550E-03
            1566            2395     86.0880E-03     89.4303E-03
            1566            2396     93.9707E-03     97.3357E-03
            1567            2378     95.0939E-03     98.0550E-03
            1567            2379     103.254E-03     106.285E-03
            1567            2396     93.9707E-03     97.3357E-03
            1567            2397     101.863E-03     105.253E-03
            1568            2379     103.254E-03     106.285E-03
            1568            2380     111.498E-03     114.642E-03
            1568            2397     101.863E-03     105.253E-03
            1568            2398     109.802E-03     113.224E-03
            1569            2380     111.498E-03     114.642E-03
            1569            2381     119.855E-03     123.173E-03
            1569            2398     109.802E-03     113.224E-03
            1569            2399     117.825E-03     121.309E-03
            1570            2381     119.855E-03     123.173E-03
            1570            2382     128.506E-03     132.027E-03
            1570            2399     117.825E-03     121.309E-03
            1570            2400     126.085E-03     129.633E-03
            1571            2382     128.506E-03     132.027E-03
            1571            2383     137.454E-03     141.241E-03
            1571            2400     126.085E-03     129.633E-03
            1571            2401     134.773E-03     138.452E-03
            1572            2383     137.454E-03     141.241E-03
            1572            2384     147.479E-03     151.115E-03
            1572            2401     134.773E-03     138.452E-03
            1572            2402     144.389E-03     148.048E-03
            1573             387     157.796E-03     161.026E-03
            1573             388     156.817E-03     159.688E-03
            1573            2384     147.479E-03     151.115E-03
            1573            2402     144.389E-03     148.048E-03
            1574             408     10.4394E-03     14.8760E-03
            1574             409     6.52661E-03     10.2079E-03
            1574            2385     9.12831E-03     13.1715E-03
            1574            2403     12.8742E-03     16.4172E-03
            1575            2385     9.12831E-03     13.1715E-03
            1575            2386     15.5731E-03     19.4553E-03
            1575            2403     12.8742E-03     16.4172E-03
            1575            2404     18.4573E-03     21.1394E-03
            1576            2386     15.5731E-03     19.4553E-03
            1576            2387     23.3044E-03     26.5398E-03
            1576            2404     18.4573E-03     21.1394E-03
            1576            2405     25.0803E-03     27.9839E-03
            1577            2387     23.3044E-03     26.5398E-03
            1577            2388     31.0779E-03     34.2078E-03
            1577            2405     25.0803E-03     27.9839E-03
            1577            2406     32.1787E-03     35.3952E-03
            1578            2388     31.0779E-03     34.2078E-03
            1578            2389     38.8774E-03     42.0355E-03
            1578            2406     32.1787E-03     35.3952E-03
            1578            2407     39.5407E-03     42.9710E-03
            1579            2389     38.8774E-03     42.0355E-03
            1579            2390     46.7196E-03     49.9071E-03
            1579            2407     39.5407E-03     42.9710E-03
            1579            2408     47.0513E-03     50.6220E-03
            1580            2390     46.7196E-03     49.9071E-03
            1580            2391     54.5802E-03     57.8065E-03
            1580            2408     47.0513E-03     50.6220E-03
            1580            2409     54.6371E-03     58.2859E-03
            1581            2391     54.5802E-03     57.8065E-03
            1581            2392     62.4517E-03     65.7158E-03
            1581            2409     54.6371E-03     58.2859E-03
            1581            2410     62.2581E-03     65.9556E-03
            1582            2392     62.4517E-03     65.7158E-03
            1582            2393     70.3298E-03     73.6233E-03
            1582            2410     62.2581E-03     65.9556E-03
            1582            2411     69.8763E-03     73.6112E-03
            1583            2393     70.3298E-03     73.6233E-03
            1583            2394     78.2089E-03     81.5305E-03
            1583            2411     69.8763E-03     73.6112E-03
            1583            2412     77.4784E-03     81.2359E-03
            1584            2394     78.2089E-03     81.5305E-03
            1584            2395     86.0880E-03     89.4303E-03
            1584            2412     77.4784E-03     81.2359E-03
            1584            2413     85.0468E-03     88.8235E-03
            1585            2395     86.0880E-03     89.4303E-03
            1585            2396     93.9707E-03     97.3357E-03
            1585            2413     85.0468E-03     88.8235E-03
            1585            2414     92.5778E-03     96.3489E-03
            1586            2396     93.9707E-03     97.3357E-03
            1586            2397     101.863E-03     105.253E-03
            1586            2414     92.5778E-03     96.3489E-03
            1586            2415     100.081E-03     103.829E-03
            1587            2397     101.863E-03     105.253E-03
            1587            2398     109.802E-03     113.224E-03
            1587            2415     100.081E-03     103.829E-03
            1587            2416     107.563E-03     111.239E-03
            1588            2398     109.802E-03     113.224E-03
            1588            2399     117.825E-03     121.309E-03
            1588            2416     107.563E-03     111.239E-03
            1588            2417     115.119E-03     118.675E-03
            1589            2399     117.825E-03     121.309E-03
            1589            2400     126.085E-03     129.633E-03
            1589            2417     115.119E-03     118.675E-03
            1589            2418     122.768E-03     126.166E-03
            1590            2400     126.085E-03     129.633E-03
            1590            2401     134.773E-03     138.452E-03
            1590            2418     122.768E-03     126.166E-03
            1590            2419     130.938E-03     134.098E-03
            1591            2401     134.773E-03     138.452E-03
            1591            2402     144.389E-03     148.048E-03
            1591            2419     130.938E-03     134.098E-03
            1591            2420     139.693E-03     142.766E-03
            1592             388     156.817E-03     159.688E-03
            1592             389     151.027E-03     154.089E-03
            1592            2402     144.389E-03     148.048E-03
            1592            2420     139.693E-03     142.766E-03
            1593              22     9.11713E-03     10.8966E-03
            1593             407     12.2562E-03     13.6045E-03
            1593             408     10.4394E-03     14.8760E-03
            1593            2403     12.8742E-03     16.4172E-03
            1594             406     18.7680E-03     19.8336E-03
            1594             407     12.2562E-03     13.6045E-03
            1594            2403     12.8742E-03     16.4172E-03
            1594            2404     18.4573E-03     21.1394E-03
            1595             405     25.8158E-03     27.1549E-03
            1595             406     18.7680E-03     19.8336E-03
            1595            2404     18.4573E-03     21.1394E-03
            1595            2405     25.0803E-03     27.9839E-03
            1596             404     33.2784E-03     34.8419E-03
            1596             405     25.8158E-03     27.1549E-03
            1596            2405     25.0803E-03     27.9839E-03
            1596            2406     32.1787E-03     35.3952E-03
            1597             403     40.9573E-03     42.6284E-03
            1597             404     33.2784E-03     34.8419E-03
            1597            2406     32.1787E-03     35.3952E-03
            1597            2407     39.5407E-03     42.9710E-03
            1598             402     48.7706E-03     50.4642E-03
            1598             403     40.9573E-03     42.6284E-03
            1598            2407     39.5407E-03     42.9710E-03
            1598            2408     47.0513E-03     50.6220E-03
            1599             401     56.6387E-03     58.3250E-03
            1599             402     48.7706E-03     50.4642E-03
            1599            2408     47.0513E-03     50.6220E-03
            1599            2409     54.6371E-03     58.2859E-03
            1600             400     64.5404E-03     66.1857E-03
            1600             401     56.6387E-03     58.3250E-03
            1600            2409     54.6371E-03     58.2859E-03
            1600            2410     62.2581E-03     65.9556E-03
            1601             399     72.4369E-03     74.0472E-03
            1601             400     64.5404E-03     66.1857E-03
            1601            2410     62.2581E-03     65.9556E-03
            1601            2411     69.8763E-03     73.6112E-03
            1602             398     80.3321E-03     81.8809E-03
            1602             399     72.4369E-03     74.0472E-03
            1602            2411     69.8763E-03     73.6112E-03
            1602            2412     77.4784E-03     81.2359E-03
            1603             397     88.1853E-03     89.7016E-03
            1603             398     80.3321E-03     81.8809E-03
            1603            2412     77.4784E-03     81.2359E-03
            1603            2413     85.0468E-03     88.8235E-03
            1604             396     96.0424E-03     97.4562E-03
            1604             397     88.1853E-03     89.7016E-03
            1604            2413     85.0468E-03     88.8235E-03
            1604            2414     92.5778E-03     96.3489E-03
            1605             395     103.820E-03     105.206E-03
            1605             396     96.0424E-03     97.4562E-03
            1605            2414     92.5778E-03     96.3489E-03
            1605            2415     100.081E-03     103.829E-03
            1606             394     111.668E-03     112.839E-03
            1606             395     103.820E-03     105.206E-03
            1606            2415     100.081E-03     103.829E-03
            1606            2416     107.563E-03     111.239E-03
            1607             393     119.398E-03     120.538E-03
            1607             394     111.668E-03     112.839E-03
            1607            2416     107.563E-03     111.239E-03
            1607            2417     115.119E-03     118.675E-03
            1608             392     127.387E-03     128.107E-03
            1608             393     119.398E-03     120.538E-03
            1608            2417     115.119E-03     118.675E-03
            1608            2418     122.768E-03     126.166E-03
            1609             391     135.301E-03     135.996E-03
            1609             392     127.387E-03     128.107E-03
            1609            2418     122.768E-03     126.166E-03
            1609            2419     130.938E-03     134.098E-03
            1610             390     143.832E-03     144.060E-03
            1610             391     135.301E-03     135.996E-03
            1610            2419     130.938E-03     134.098E-03
            1610            2420     139.693E-03     142.766E-03
            1611              21     153.115E-03     153.447E-03
            1611             389     151.027E-03     154.089E-03
            1611             390     143.832E-03     144.060E-03
            1611            2420     139.693E-03     142.766E-03
            1612              17     4.32785E-03     3.06244E-03
            1612             303     630.255E-06     675.442E-06
            1612             455     4.98413E-03     5.67537E-03
            1612            2421     540.663E-06     620.861E-06
            1613              23     6.55896E-03     9.22767E-03
            1613             455     4.98413E-03     5.67537E-03
            1613             456     548.327E-06     644.018E-06
            1613            2421     540.663E-06     620.861E-06
            1614             303     630.255E-06     675.442E-06
            1614             304     669.845E-06     635.795E-06
            1614            2421     540.663E-06     620.861E-06
            1614            2422     465.304E-06     485.662E-06
            1615             456     548.327E-06     644.018E-06
            1615             457     355.500E-06     413.853E-06
            1615            2421     540.663E-06     620.861E-06
            1615            2422     465.304E-06     485.662E-06
            1616              18     662.599E-06     592.163E-06
            1616             304     669.845E-06     635.795E-06
            1616             458     433.141E-06     460.902E-06
            1616            2422     465.304E-06     485.662E-06
            1617              24     273.311E-06     410.995E-06
            1617             457     355.500E-06     413.853E-06
            1617             458     433.141E-06     460.902E-06
            1617            2422     465.304E-06     485.662E-06
            1618              20     4.32785E-03     3.06244E-03
            1618             343     8.52676E-03     6.66110E-03
            1618             459     4.98413E-03     5.67537E-03
            1618            2423     9.52702E-03     9.75154E-03
            1619               3     6.55896E-03     9.22767E-03
            1619             155     11.6152E-03     13.1821E-03
            1619             459     4.98413E-03     5.67537E-03
            1619            2423     9.52702E-03     9.75154E-03
            1620             343     8.52676E-03     6.66110E-03
            1620             344     10.0538E-03     9.67075E-03
            1620            2423     9.52702E-03     9.75154E-03
            1620            2424     11.2596E-03     10.6663E-03
            1621             154     11.0108E-03     9.06988E-03
            1621             155     11.6152E-03     13.1821E-03
            1621            2423     9.52702E-03     9.75154E-03
            1621            2424     11.2596E-03     10.6663E-03
            1622             344     10.0538E-03     9.67075E-03
            1622             345     13.0495E-03     13.2009E-03
            1622            2424     11.2596E-03     10.6663E-03
            1622            2425     15.0577E-03     14.8712E-03
            1623             153     13.5885E-03     13.2705E-03
            1623             154     11.0108E-03     9.06988E-03
            1623            2424     11.2596E-03     10.6663E-03
            1623            2425     15.0577E-03     14.8712E-03
            1624             345     13.0495E-03     13.2009E-03
            1624             346     16.5360E-03     16.9393E-03
            1624            2425     15.0577E-03     14.8712E-03
            1624            2426     19.7124E-03     19.6777E-03
            1625             152     20.1249E-03     19.5998E-03
            1625             153     13.5885E-03     13.2705E-03
            1625            2425     15.0577E-03     14.8712E-03
            1625            2426     19.7124E-03     19.6777E-03
            1626             346     16.5360E-03     16.9393E-03
            1626             347     20.1019E-03     20.6022E-03
            1626            2426     19.7124E-03     19.6777E-03
            1626            2427     24.4265E-03     24.8553E-03
            1627             151     26.1602E-03     27.2942E-03
            1627             152     20.1249E-03     19.5998E-03
            1627            2426     19.7124E-03     19.6777E-03
            1627            2427     24.4265E-03     24.8553E-03
            1628             347     20.1019E-03     20.6022E-03
            1628             348     22.6129E-03     23.4729E-03
            1628            2427     24.4265E-03     24.8553E-03
            1628            2428     29.7233E-03     29.6847E-03
            1629             150     35.1320E-03     33.9101E-03
            1629             151     26.1602E-03     27.2942E-03
            1629            2427     24.4265E-03     24.8553E-03
            1629            2428     29.7233E-03     29.6847E-03
            1630             348     22.6129E-03     23.4729E-03
            1630             349     22.4274E-03     24.9761E-03
            1630            2428     29.7233E-03     29.6847E-03
            1630            2429     32.6532E-03     34.8496E-03
            1631             149     42.7267E-03     43.3806E-03
            1631             150     35.1320E-03     33.9101E-03
            1631            2428     29.7233E-03     29.6847E-03
            1631            2429     32.6532E-03     34.8496E-03
            1632             349     22.4274E-03     24.9761E-03
            1632             350     29.8224E-03     30.1202E-03
            1632            2429     32.6532E-03     34.8496E-03
            1632            2430     33.2309E-03     34.4070E-03
            1633             148     36.0455E-03     38.9457E-03
            1633             149     42.7267E-03     43.3806E-03
            1633            2429     32.6532E-03     34.8496E-03
            1633            2430     33.2309E-03     34.4070E-03
            1634             350     29.8224E-03     30.1202E-03
            1634             351     38.9151E-03     37.1774E-03
            1634            2430     33.2309E-03     34.4070E-03
            1634            2431     35.8677E-03     34.3081E-03
            1635             147     31.9299E-03     29.8481E-03
            1635             148     36.0455E-03     38.9457E-03
            1635            2430     33.2309E-03     34.4070E-03
            1635            2431     35.8677E-03     34.3081E-03
            1636             351     38.9151E-03     37.1774E-03
            1636             352     41.5015E-03     41.5760E-03
            1636            2431     35.8677E-03     34.3081E-03
            1636            2432     40.7529E-03     40.8218E-03
            1637             146     38.0532E-03     37.1295E-03
            1637             147     31.9299E-03     29.8481E-03
            1637            2431     35.8677E-03     34.3081E-03
            1637            2432     40.7529E-03     40.8218E-03
            1638             352     41.5015E-03     41.5760E-03
            1638             353     45.1438E-03     45.8475E-03
            1638            2432     40.7529E-03     40.8218E-03
            1638            2433     46.2791E-03     46.6047E-03
            1639             145     44.1958E-03     44.1053E-03
            1639             146     38.0532E-03     37.1295E-03
            1639            2432     40.7529E-03     40.8218E-03
            1639            2433     46.2791E-03     46.6047E-03
            1640             353     45.1438E-03     45.8475E-03
            1640             354     48.9812E-03     49.9006E-03
            1640            2433     46.2791E-03     46.6047E-03
            1640            2434     51.3374E-03     51.8301E-03
            1641             144     50.6380E-03     50.3715E-03
            1641             145     44.1958E-03     44.1053E-03
            1641            2433     46.2791E-03     46.6047E-03
            1641            2434     51.3374E-03     51.8301E-03
            1642             354     48.9812E-03     49.9006E-03
            1642             355     52.6494E-03     53.6151E-03
            1642            2434     51.3374E-03     51.8301E-03
            1642            2435     56.0542E-03     56.8058E-03
            1643             143     56.5659E-03     57.0360E-03
            1643             144     50.6380E-03     50.3715E-03
            1643            2434     51.3374E-03     51.8301E-03
            1643            2435     56.0542E-03     56.8058E-03
            1644             355     52.6494E-03     53.6151E-03
            1644             356     55.9189E-03     57.1421E-03
            1644            2435     56.0542E-03     56.8058E-03
            1644            2436     60.8191E-03     61.5455E-03
            1645             142     63.2982E-03     62.5903E-03
            1645             143     56.5659E-03     57.0360E-03
            1645            2435     56.0542E-03     56.8058E-03
            1645            2436     60.8191E-03     61.5455E-03
            1646             356     55.9189E-03     57.1421E-03
            1646             357     58.9688E-03     60.0724E-03
            1646            2436     60.8191E-03     61.5455E-03
            1646            2437     65.2438E-03     66.5237E-03
            1647             141     68.4108E-03     70.6508E-03
            1647             142     63.2982E-03     62.5903E-03
            1647            2436     60.8191E-03     61.5455E-03
            1647            2437     65.2438E-03     66.5237E-03
            1648             357     58.9688E-03     60.0724E-03
            1648             358     60.4366E-03     61.7232E-03
            1648            2437     65.2438E-03     66.5237E-03
            1648            2438     70.0366E-03     70.3624E-03
            1649             140     78.0450E-03     75.9521E-03
            1649             141     68.4108E-03     70.6508E-03
            1649            2437     65.2438E-03     66.5237E-03
            1649            2438     70.0366E-03     70.3624E-03
            1650             358     60.4366E-03     61.7232E-03
            1650             359     58.6265E-03     61.2696E-03
            1650            2438     70.0366E-03     70.3624E-03
            1650            2439     71.6655E-03     73.8218E-03
            1651             139     85.2217E-03     84.8828E-03
            1651             140     78.0450E-03     75.9521E-03
            1651            2438     70.0366E-03     70.3624E-03
            1651            2439     71.6655E-03     73.8218E-03
            1652             359     58.6265E-03     61.2696E-03
            1652             360     64.7368E-03     65.0212E-03
            1652            2439     71.6655E-03     73.8218E-03
            1652            2440     70.8123E-03     72.3478E-03
            1653             138     76.4925E-03     82.0400E-03
            1653             139     85.2217E-03     84.8828E-03
            1653            2439     71.6655E-03     73.8218E-03
            1653            2440     70.8123E-03     72.3478E-03
            1654             360     64.7368E-03     65.0212E-03
            1654             361     74.3846E-03     73.0515E-03
            1654            2440     70.8123E-03     72.3478E-03
            1654            2441     73.9991E-03     72.4483E-03
            1655             137     73.9713E-03     70.7035E-03
            1655             138     76.4925E-03     82.0400E-03
            1655            2440     70.8123E-03     72.3478E-03
            1655            2441     73.9991E-03     72.4483E-03
            1656             361     74.3846E-03     73.0515E-03
            1656             362     78.4322E-03     78.9735E-03
            1656            2441     73.9991E-03     72.4483E-03
            1656            2442     79.5571E-03     79.9339E-03
            1657             136     79.1106E-03     77.2704E-03
            1657             137     73.9713E-03     70.7035E-03
            1657            2441     73.9991E-03     72.4483E-03
            1657            2442     79.5571E-03     79.9339E-03
            1658             362     78.4322E-03     78.9735E-03
            1658             363     82.5847E-03     83.9449E-03
            1658            2442     79.5571E-03     79.9339E-03
            1658            2443     84.9559E-03     85.9095E-03
            1659             135     83.5131E-03     84.1637E-03
            1659             136     79.1106E-03     77.2704E-03
            1659            2442     79.5571E-03     79.9339E-03
            1659            2443     84.9559E-03     85.9095E-03
            1660             363     82.5847E-03     83.9449E-03
            1660             364     86.6030E-03     88.1434E-03
            1660            2443     84.9559E-03     85.9095E-03
            1660            2444     89.8342E-03     90.8385E-03
            1661             134     89.6518E-03     89.2178E-03
            1661             135     83.5131E-03     84.1637E-03
            1661            2443     84.9559E-03     85.9095E-03
            1661            2444     89.8342E-03     90.8385E-03
            1662             364     86.6030E-03     88.1434E-03
            1662             365     90.1608E-03     91.8302E-03
            1662            2444     89.8342E-03     90.8385E-03
            1662            2445     94.3840E-03     95.5420E-03
            1663             133     95.1060E-03     95.2443E-03
            1663             134     89.6518E-03     89.2178E-03
            1663            2444     89.8342E-03     90.8385E-03
            1663            2445     94.3840E-03     95.5420E-03
            1664             365     90.1608E-03     91.8302E-03
            1664             366     93.4573E-03     95.1403E-03
            1664            2445     94.3840E-03     95.5420E-03
            1664            2446     98.6240E-03     100.014E-03
            1665             132     100.380E-03     101.132E-03
            1665             133     95.1060E-03     95.2443E-03
            1665            2445     94.3840E-03     95.5420E-03
            1665            2446     98.6240E-03     100.014E-03
            1666             366     93.4573E-03     95.1403E-03
            1666             367     96.2012E-03     98.1656E-03
            1666            2446     98.6240E-03     100.014E-03
            1666            2447     102.891E-03     104.197E-03
            1667             131     106.717E-03     105.781E-03
            1667             132     100.380E-03     101.132E-03
            1667            2446     98.6240E-03     100.014E-03
            1667            2447     102.891E-03     104.197E-03
            1668             367     96.2012E-03     98.1656E-03
            1668             368     98.5699E-03     100.321E-03
            1668            2447     102.891E-03     104.197E-03
            1668            2448     106.692E-03     108.660E-03
            1669             130     110.796E-03     113.889E-03
            1669             131     106.717E-03     105.781E-03
            1669            2447     102.891E-03     104.197E-03
            1669            2448     106.692E-03     108.660E-03
            1670             368     98.5699E-03     100.321E-03
            1670             369     98.9813E-03     100.676E-03
            1670            2448     106.692E-03     108.660E-03
            1670            2449     110.778E-03     111.384E-03
            1671             129     120.954E-03     117.908E-03
            1671             130     110.796E-03     113.889E-03
            1671            2448     106.692E-03     108.660E-03
            1671            2449     110.778E-03     111.384E-03
            1672             369     98.9813E-03     100.676E-03
            1672             370     95.4172E-03     98.1301E-03
            1672            2449     110.778E-03     111.384E-03
            1672            2450     110.985E-03     113.068E-03
            1673             128     127.795E-03     126.372E-03
            1673             129     120.954E-03     117.908E-03
            1673            2449     110.778E-03     111.384E-03
            1673            2450     110.985E-03     113.068E-03
            1674             370     95.4172E-03     98.1301E-03
            1674             371     99.9220E-03     100.223E-03
            1674            2450     110.985E-03     113.068E-03
            1674            2451     108.859E-03     110.954E-03
            1675             127     117.490E-03     125.889E-03
            1675             128     127.795E-03     126.372E-03
            1675            2450     110.985E-03     113.068E-03
            1675            2451     108.859E-03     110.954E-03
            1676             371     99.9220E-03     100.223E-03
            1676             372     109.943E-03     109.040E-03
            1676            2451     108.859E-03     110.954E-03
            1676            2452     112.882E-03     111.526E-03
            1677             126     116.977E-03     112.791E-03
            1677             127     117.490E-03     125.889E-03
            1677            2451     108.859E-03     110.954E-03
            1677            2452     112.882E-03     111.526E-03
            1678             372     109.943E-03     109.040E-03
            1678             373     115.457E-03     116.508E-03
            1678            2452     112.882E-03     111.526E-03
            1678            2453     119.117E-03     119.769E-03
            1679             125     121.186E-03     118.357E-03
            1679             126     116.977E-03     112.791E-03
            1679            2452     112.882E-03     111.526E-03
            1679            2453     119.117E-03     119.769E-03
            1680             373     115.457E-03     116.508E-03
            1680             374     120.083E-03     122.113E-03
            1680            2453     119.117E-03     119.769E-03
            1680            2454     124.280E-03     125.924E-03
            1681             124     123.736E-03     125.289E-03
            1681             125     121.186E-03     118.357E-03
            1681            2453     119.117E-03     119.769E-03
            1681            2454     124.280E-03     125.924E-03
            1682             374     120.083E-03     122.113E-03
            1682             375     124.092E-03     126.383E-03
            1682            2454     124.280E-03     125.924E-03
            1682            2455     128.935E-03     130.464E-03
            1683             123     129.801E-03     129.085E-03
            1683             124     123.736E-03     125.289E-03
            1683            2454     124.280E-03     125.924E-03
            1683            2455     128.935E-03     130.464E-03
            1684             375     124.092E-03     126.383E-03
            1684             376     127.486E-03     129.858E-03
            1684            2455     128.935E-03     130.464E-03
            1684            2456     133.116E-03     134.842E-03
            1685             122     134.516E-03     134.887E-03
            1685             123     129.801E-03     129.085E-03
            1685            2455     128.935E-03     130.464E-03
            1685            2456     133.116E-03     134.842E-03
            1686             376     127.486E-03     129.858E-03
            1686             377     130.454E-03     132.837E-03
            1686            2456     133.116E-03     134.842E-03
            1686            2457     136.956E-03     138.892E-03
            1687             121     139.292E-03     140.219E-03
            1687             122     134.516E-03     134.887E-03
            1687            2456     133.116E-03     134.842E-03
            1687            2457     136.956E-03     138.892E-03
            1688             377     130.454E-03     132.837E-03
            1688             378     132.727E-03     135.400E-03
            1688            2457     136.956E-03     138.892E-03
            1688            2458     140.759E-03     142.563E-03
            1689             120     145.250E-03     144.087E-03
            1689             121     139.292E-03     140.219E-03
            1689            2457     136.956E-03     138.892E-03
            1689            2458     140.759E-03     142.563E-03
            1690             378     132.727E-03     135.400E-03
            1690             379     134.454E-03     136.828E-03
            1690            2458     140.759E-03     142.563E-03
            1690            2459     143.948E-03     146.511E-03
            1691             119     148.427E-03     152.205E-03
            1691             120     145.250E-03     144.087E-03
            1691            2458     140.759E-03     142.563E-03
            1691            2459     143.948E-03     146.511E-03
            1692             379     134.454E-03     136.828E-03
            1692             380     133.892E-03     135.984E-03
            1692            2459     143.948E-03     146.511E-03
            1692            2460     147.338E-03     148.187E-03
            1693             118     159.024E-03     155.093E-03
            1693             119     148.427E-03     152.205E-03
            1693            2459     143.948E-03     146.511E-03
            1693            2460     147.338E-03     148.187E-03
            1694             380     133.892E-03     135.984E-03
            1694             381     128.759E-03     131.524E-03
            1694            2460     147.338E-03     148.187E-03
            1694            2461     146.251E-03     148.236E-03
            1695             117     165.579E-03     163.145E-03
            1695             118     159.024E-03     155.093E-03
            1695            2460     147.338E-03     148.187E-03
            1695            2461     146.251E-03     148.236E-03
            1696             381     128.759E-03     131.524E-03
            1696             382     131.836E-03     132.300E-03
            1696            2461     146.251E-03     148.236E-03
            1696            2462     142.876E-03     145.633E-03
            1697             116     153.491E-03     164.548E-03
            1697             117     165.579E-03     163.145E-03
            1697            2461     146.251E-03     148.236E-03
            1697            2462     142.876E-03     145.633E-03
            1698             382     131.836E-03     132.300E-03
            1698             383     142.121E-03     141.923E-03
            1698            2462     142.876E-03     145.633E-03
            1698            2463     147.657E-03     146.802E-03
            1699             115     154.372E-03     149.856E-03
            1699             116     153.491E-03     164.548E-03
            1699            2462     142.876E-03     145.633E-03
            1699            2463     147.657E-03     146.802E-03
            1700             383     142.121E-03     141.923E-03
            1700             384     148.548E-03     150.558E-03
            1700            2463     147.657E-03     146.802E-03
            1700            2464     154.620E-03     155.780E-03
            1701             114     158.593E-03     154.895E-03
            1701             115     154.372E-03     149.856E-03
            1701            2463     147.657E-03     146.802E-03
            1701            2464     154.620E-03     155.780E-03
            1702             384     148.548E-03     150.558E-03
            1702             385     153.077E-03     156.109E-03
            1702            2464     154.620E-03     155.780E-03
            1702            2465     159.273E-03     162.152E-03
            1703             113     159.503E-03     162.966E-03
            1703             114     158.593E-03     154.895E-03
            1703            2464     154.620E-03     155.780E-03
            1703            2465     159.273E-03     162.152E-03
            1704             385     153.077E-03     156.109E-03
            1704             386     155.891E-03     159.679E-03
            1704            2465     159.273E-03     162.152E-03
            1704            2466     163.621E-03     165.867E-03
            1705             112     167.031E-03     164.451E-03
            1705             113     159.503E-03     162.966E-03
            1705            2465     159.273E-03     162.152E-03
            1705            2466     163.621E-03     165.867E-03
            1706             386     155.891E-03     159.679E-03
            1706             387     157.796E-03     161.026E-03
            1706            2466     163.621E-03     165.867E-03
            1706            2467     166.523E-03     169.844E-03
            1707             111     168.977E-03     173.656E-03
            1707             112     167.031E-03     164.451E-03
            1707            2466     163.621E-03     165.867E-03
            1707            2467     166.523E-03     169.844E-03
            1708             387     157.796E-03     161.026E-03
            1708             388     156.817E-03     159.688E-03
            1708            2467     166.523E-03     169.844E-03
            1708            2468     169.563E-03     170.778E-03
            1709             110     179.907E-03     175.327E-03
            1709             111     168.977E-03     173.656E-03
            1709            2467     166.523E-03     169.844E-03
            1709            2468     169.563E-03     170.778E-03
            1710             388     156.817E-03     159.688E-03
            1710             389     151.027E-03     154.089E-03
            1710            2468     169.563E-03     170.778E-03
            1710            2469     167.665E-03     169.698E-03
            1711             109     185.963E-03     183.054E-03
            1711             110     179.907E-03     175.327E-03
            1711            2468     169.563E-03     170.778E-03
            1711            2469     167.665E-03     169.698E-03
            1712              21     153.115E-03     153.447E-03
            1712             389     151.027E-03     154.089E-03
            1712             460     164.300E-03     166.550E-03
            1712            2469     167.665E-03     169.698E-03
            1713               6     173.222E-03     180.235E-03
            1713             109     185.963E-03     183.054E-03
            1713             460     164.300E-03     166.550E-03
            1713            2469     167.665E-03     169.698E-03
            1714               2     20.4976E-03     20.2729E-03
            1714              44     1.19510E-03     1.16681E-03
            1714             470     19.6593E-03     19.4833E-03
            1714            2470     1.14676E-03     1.12123E-03
            1715              43     1.19368E-03     1.17295E-03
            1715              44     1.19510E-03     1.16681E-03
            1715            2470     1.14676E-03     1.12123E-03
            1715            2471     1.14606E-03     1.12387E-03
            1716               1     1.17386E-03     1.17080E-03
            1716              43     1.19368E-03     1.17295E-03
            1716             461     1.12543E-03     1.12117E-03
            1716            2471     1.14606E-03     1.12387E-03
            1717             469     17.4182E-03     17.3247E-03
            1717             470     19.6593E-03     19.4833E-03
            1717            2470     1.14676E-03     1.12123E-03
            1717            2472     1.00474E-03     991.295E-06
            1718            2470     1.14676E-03     1.12123E-03
            1718            2471     1.14606E-03     1.12387E-03
            1718            2472     1.00474E-03     991.295E-06
            1718            2473     1.00278E-03     978.899E-06
            1719             461     1.12543E-03     1.12117E-03
            1719             462     982.033E-06     975.317E-06
            1719            2471     1.14606E-03     1.12387E-03
            1719            2473     1.00278E-03     978.899E-06
            1720             468     13.6025E-03     13.9654E-03
            1720             469     17.4182E-03     17.3247E-03
            1720            2472     1.00474E-03     991.295E-06
            1720            2474     790.046E-06     793.747E-06
            1721            2472     1.00474E-03     991.295E-06
            1721            2473     1.00278E-03     978.899E-06
            1721            2474     790.046E-06     793.747E-06
            1721            2475     782.710E-06     755.460E-06
            1722             462     982.033E-06     975.317E-06
            1722             463     763.102E-06     753.043E-06
            1722            2473     1.00278E-03     978.899E-06
            1722            2475     782.710E-06     755.460E-06
            1723             467     9.41521E-03     10.2273E-03
            1723             468     13.6025E-03     13.9654E-03
            1723            2474     790.046E-06     793.747E-06
            1723            2476     532.479E-06     575.216E-06
            1724            2474     790.046E-06     793.747E-06
            1724            2475     782.710E-06     755.460E-06
            1724            2476     532.479E-06     575.216E-06
            1724            2477     530.987E-06     495.042E-06
            1725             463     763.102E-06     753.043E-06
            1725             464     479.123E-06     473.192E-06
            1725            2475     782.710E-06     755.460E-06
            1725            2477     530.987E-06     495.042E-06
            1726             466     7.10245E-03     8.96129E-03
            1726             467     9.41521E-03     10.2273E-03
            1726            2476     532.479E-06     575.216E-06
            1726            2478     529.471E-06     602.717E-06
            1727            2476     532.479E-06     575.216E-06
            1727            2477     530.987E-06     495.042E-06
            1727            2478     529.471E-06     602.717E-06
            1727            2479     434.250E-06     430.682E-06
            1728             464     479.123E-06     473.192E-06
            1728             465     318.893E-06     392.495E-06
            1728            2477     530.987E-06     495.042E-06
            1728            2479     434.250E-06     430.682E-06
            1729              23     6.55896E-03     9.22767E-03
            1729             456     548.327E-06     644.018E-06
            1729             466     7.10245E-03     8.96129E-03
            1729            2478     529.471E-06     602.717E-06
            1730             456     548.327E-06     644.018E-06
            1730             457     355.500E-06     413.853E-06
            1730            2478     529.471E-06     602.717E-06
            1730            2479     434.250E-06     430.682E-06
            1731              24     273.311E-06     410.995E-06
            1731             457     355.500E-06     413.853E-06
            1731             465     318.893E-06     392.495E-06
            1731            2479     434.250E-06     430.682E-06
            2140               3     6.55896E-03     9.22767E-03
            2140              50     548.327E-06     644.018E-06
            2140             459     4.98413E-03     5.67537E-03
            2140            2823     540.663E-06     620.861E-06
            2141              20     4.32785E-03     3.06244E-03
            2141             459     4.98413E-03     5.67537E-03
            2141             539     630.255E-06     675.442E-06
            2141            2823     540.663E-06     620.861E-06
            2142              50     548.327E-06     644.018E-06
            2142              51     355.500E-06     413.853E-06
            2142            2823     540.663E-06     620.861E-06
            2142            2824     465.304E-06     485.662E-06
            2143             539     630.255E-06     675.442E-06
            2143             540     669.845E-06     635.795E-06
            2143            2823     540.663E-06     620.861E-06
            2143            2824     465.304E-06     485.662E-06
            2144               4     273.311E-06     410.995E-06
            2144              51     355.500E-06     413.853E-06
            2144             541     433.141E-06     460.902E-06
            2144            2824     465.304E-06     485.662E-06
            2145              26     662.599E-06     592.163E-06
            2145             540     669.845E-06     635.795E-06
            2145             541     433.141E-06     460.902E-06
            2145            2824     465.304E-06     485.662E-06
            2146               7     38.1984E-03     37.5362E-03
            2146             161     37.5971E-03     34.8430E-03
            2146             557     54.5353E-03     59.7553E-03
            2146            2825     58.2331E-03     55.5598E-03
            2147             160     37.8056E-03     37.4423E-03
            2147             161     37.5971E-03     34.8430E-03
            2147            2825     58.2331E-03     55.5598E-03
            2147            2826     59.1044E-03     59.5766E-03
            2148             159     35.7382E-03     36.5011E-03
            2148             160     37.8056E-03     37.4423E-03
            2148            2826     59.1044E-03     59.5766E-03
            2148            2827     57.0057E-03     58.2698E-03
            2149             158     36.4874E-03     37.9993E-03
            2149             159     35.7382E-03     36.5011E-03
            2149            2827     57.0057E-03     58.2698E-03
            2149            2828     56.4108E-03     55.6623E-03
            2150             157     31.2687E-03     34.8588E-03
            2150             158     36.4874E-03     37.9993E-03
            2150            2828     56.4108E-03     55.6623E-03
            2150            2829     49.3707E-03     54.1625E-03
            2151             156     36.6390E-03     37.3025E-03
            2151             157     31.2687E-03     34.8588E-03
            2151            2829     49.3707E-03     54.1625E-03
            2151            2830     54.2408E-03     54.7126E-03
            2152               5     39.6799E-03     39.6354E-03
            2152             156     36.6390E-03     37.3025E-03
            2152             542     54.9877E-03     56.7280E-03
            2152            2830     54.2408E-03     54.7126E-03
            2153             556     88.1850E-03     103.609E-03
            2153             557     54.5353E-03     59.7553E-03
            2153            2825     58.2331E-03     55.5598E-03
            2153            2831     101.010E-03     96.5812E-03
            2154            2825     58.2331E-03     55.5598E-03
            2154            2826     59.1044E-03     59.5766E-03
            2154            2831     101.010E-03     96.5812E-03
            2154            2832     103.594E-03     103.019E-03
            2155            2826     59.1044E-03     59.5766E-03
            2155            2827     57.0057E-03     58.2698E-03
            2155            2832     103.594E-03     103.019E-03
            2155            2833     100.346E-03     101.193E-03
            2156            2827     57.0057E-03     58.2698E-03
            2156            2828     56.4108E-03     55.6623E-03
            2156            2833     100.346E-03     101.193E-03
            2156            2834     96.2915E-03     91.8984E-03
            2157            2828     56.4108E-03     55.6623E-03
            2157            2829     49.3707E-03     54.1625E-03
            2157            2834     96.2915E-03     91.8984E-03
            2157            2835     84.4902E-03     92.6693E-03
            2158            2829     49.3707E-03     54.1625E-03
            2158            2830     54.2408E-03     54.7126E-03
            2158            2835     84.4902E-03     92.6693E-03
            2158            2836     89.2720E-03     90.6478E-03
            2159             542     54.9877E-03     56.7280E-03
            2159             543     86.8287E-03     93.2633E-03
            2159            2830     54.2408E-03     54.7126E-03
            2159            2836     89.2720E-03     90.6478E-03
            2160             555     121.008E-03     149.445E-03
            2160             556     88.1850E-03     103.609E-03
            2160            2831     101.010E-03     96.5812E-03
            2160            2837     141.432E-03     133.811E-03
            2161            2831     101.010E-03     96.5812E-03
            2161            2832     103.594E-03     103.019E-03
            2161            2837     141.432E-03     133.811E-03
            2161            2838     143.873E-03     138.794E-03
            2162            2832     103.594E-03     103.019E-03
            2162            2833     100.346E-03     101.193E-03
            2162            2838     143.873E-03     138.794E-03
            2162            2839     139.231E-03     137.544E-03
            2163            2833     100.346E-03     101.193E-03
            2163            2834     96.2915E-03     91.8984E-03
            2163            2839     139.231E-03     137.544E-03
            2163            2840     133.729E-03     127.290E-03
            2164            2834     96.2915E-03     91.8984E-03
            2164            2835     84.4902E-03     92.6693E-03
            2164            2840     133.729E-03     127.290E-03
            2164            2841     116.927E-03     130.934E-03
            2165            2835     84.4902E-03     92.6693E-03
            2165            2836     89.2720E-03     90.6478E-03
            2165            2841     116.927E-03     130.934E-03
            2165            2842     122.174E-03     123.976E-03
            2166             543     86.8287E-03     93.2633E-03
            2166             544     118.340E-03     131.675E-03
            2166            2836     89.2720E-03     90.6478E-03
            2166            2842     122.174E-03     123.976E-03
            2167             554     147.118E-03     191.118E-03
            2167             555     121.008E-03     149.445E-03
            2167            2837     141.432E-03     133.811E-03
            2167            2843     172.851E-03     166.227E-03
            2168            2837     141.432E-03     133.811E-03
            2168            2838     143.873E-03     138.794E-03
            2168            2843     172.851E-03     166.227E-03
            2168            2844     169.972E-03     167.470E-03
            2169            2838     143.873E-03     138.794E-03
            2169            2839     139.231E-03     137.544E-03
            2169            2844     169.972E-03     167.470E-03
            2169            2845     164.335E-03     165.942E-03
            2170            2839     139.231E-03     137.544E-03
            2170            2840     133.729E-03     127.290E-03
            2170            2845     164.335E-03     165.942E-03
            2170            2846     164.072E-03     157.757E-03
            2171            2840     133.729E-03     127.290E-03
            2171            2841     116.927E-03     130.934E-03
            2171            2846     164.072E-03     157.757E-03
            2171            2847     142.948E-03     163.580E-03
            2172            2841     116.927E-03     130.934E-03
            2172            2842     122.174E-03     123.976E-03
            2172            2847     142.948E-03     163.580E-03
            2172            2848     147.990E-03     150.224E-03
            2173             544     118.340E-03     131.675E-03
            2173             545     144.032E-03     164.326E-03
            2173            2842     122.174E-03     123.976E-03
            2173            2848     147.990E-03     150.224E-03
            2174             553     177.450E-03     216.737E-03
            2174             554     147.118E-03     191.118E-03
            2174            2843     172.851E-03     166.227E-03
            2174            2849     196.068E-03     189.423E-03
            2175            2843     172.851E-03     166.227E-03
            2175            2844     169.972E-03     167.470E-03
            2175            2849     196.068E-03     189.423E-03
            2175            2850     186.573E-03     185.283E-03
            2176            2844     169.972E-03     167.470E-03
            2176            2845     164.335E-03     165.942E-03
            2176            2850     186.573E-03     185.283E-03
            2176            2851     179.312E-03     181.441E-03
            2177            2845     164.335E-03     165.942E-03
            2177            2846     164.072E-03     157.757E-03
            2177            2851     179.312E-03     181.441E-03
            2177            2852     182.385E-03     174.356E-03
            2178            2846     164.072E-03     157.757E-03
            2178            2847     142.948E-03     163.580E-03
            2178            2852     182.385E-03     174.356E-03
            2178            2853     163.329E-03     181.377E-03
            2179            2847     142.948E-03     163.580E-03
            2179            2848     147.990E-03     150.224E-03
            2179            2853     163.329E-03     181.377E-03
            2179            2854     164.010E-03     166.747E-03
            2180             545     144.032E-03     164.326E-03
            2180             546     165.043E-03     182.221E-03
            2180            2848     147.990E-03     150.224E-03
            2180            2854     164.010E-03     166.747E-03
            2181              27     194.601E-03     213.578E-03
            2181             552     199.490E-03     195.570E-03
            2181             553     177.450E-03     216.737E-03
            2181            2849     196.068E-03     189.423E-03
            2182             551     192.189E-03     190.376E-03
            2182             552     199.490E-03     195.570E-03
            2182            2849     196.068E-03     189.423E-03
            2182            2850     186.573E-03     185.283E-03
            2183             550     185.542E-03     185.730E-03
            2183             551     192.189E-03     190.376E-03
            2183            2850     186.573E-03     185.283E-03
            2183            2851     179.312E-03     181.441E-03
            2184             549     183.500E-03     177.623E-03
            2184             550     185.542E-03     185.730E-03
            2184            2851     179.312E-03     181.441E-03
            2184            2852     182.385E-03     174.356E-03
            2185             548     172.544E-03     181.238E-03
            2185             549     183.500E-03     177.623E-03
            2185            2852     182.385E-03     174.356E-03
            2185            2853     163.329E-03     181.377E-03
            2186             547     169.166E-03     171.248E-03
            2186             548     172.544E-03     181.238E-03
            2186            2853     163.329E-03     181.377E-03
            2186            2854     164.010E-03     166.747E-03
            2187              25     173.222E-03     180.235E-03
            2187             546     165.043E-03     182.221E-03
            2187             547     169.166E-03     171.248E-03
            2187            2854     164.010E-03     166.747E-03
            2188              25     173.222E-03     180.235E-03
            2188             547     169.166E-03     171.248E-03
            2188             558     164.300E-03     166.550E-03
            2188            2855     164.186E-03     167.221E-03
            2189              28     153.115E-03     153.447E-03
            2189             558     164.300E-03     166.550E-03
            2189             559     156.391E-03     158.883E-03
            2189            2855     164.186E-03     167.221E-03
            2190             547     169.166E-03     171.248E-03
            2190             548     172.544E-03     181.238E-03
            2190            2855     164.186E-03     167.221E-03
            2190            2856     166.825E-03     171.387E-03
            2191             559     156.391E-03     158.883E-03
            2191             560     159.172E-03     162.516E-03
            2191            2855     164.186E-03     167.221E-03
            2191            2856     166.825E-03     171.387E-03
            2192             548     172.544E-03     181.238E-03
            2192             549     183.500E-03     177.623E-03
            2192            2856     166.825E-03     171.387E-03
            2192            2857     175.711E-03     175.853E-03
            2193             560     159.172E-03     162.516E-03
            2193             561     168.401E-03     169.826E-03
            2193            2856     166.825E-03     171.387E-03
            2193            2857     175.711E-03     175.853E-03
            2194             549     183.500E-03     177.623E-03
            2194             550     185.542E-03     185.730E-03
            2194            2857     175.711E-03     175.853E-03
            2194            2858     182.355E-03     185.005E-03
            2195             561     168.401E-03     169.826E-03
            2195             562     174.599E-03     177.197E-03
            2195            2857     175.711E-03     175.853E-03
            2195            2858     182.355E-03     185.005E-03
            2196             550     185.542E-03     185.730E-03
            2196             551     192.189E-03     190.376E-03
            2196            2858     182.355E-03     185.005E-03
            2196            2859     186.039E-03     188.403E-03
            2197             562     174.599E-03     177.197E-03
            2197             563     175.323E-03     178.750E-03
            2197            2858     182.355E-03     185.005E-03
            2197            2859     186.039E-03     188.403E-03
            2198             551     192.189E-03     190.376E-03
            2198             552     199.490E-03     195.570E-03
            2198            2859     186.039E-03     188.403E-03
            2198            2860     184.215E-03     187.059E-03
            2199             563     175.323E-03     178.750E-03
            2199             564     169.638E-03     174.159E-03
            2199            2859     186.039E-03     188.403E-03
            2199            2860     184.215E-03     187.059E-03
            2200              27     194.601E-03     213.578E-03
            2200             552     199.490E-03     195.570E-03
            2200             565     180.086E-03     187.896E-03
            2200            2860     184.215E-03     187.059E-03
            2201              29     164.106E-03     168.518E-03
            2201             564     169.638E-03     174.159E-03
            2201             565     180.086E-03     187.896E-03
            2201            2860     184.215E-03     187.059E-03
            2202              20     4.32785E-03     3.06244E-03
            2202             342     5.98976E-03     4.58006E-03
            2202             539     630.255E-06     675.442E-06
            2202            2861     606.115E-06     657.438E-06
            2203             341     6.98896E-03     5.76107E-03
            2203             342     5.98976E-03     4.58006E-03
            2203            2861     606.115E-06     657.438E-06
            2203            2862     598.928E-06     648.403E-06
            2204             340     7.49535E-03     6.40120E-03
            2204             341     6.98896E-03     5.76107E-03
            2204            2862     598.928E-06     648.403E-06
            2204            2863     595.502E-06     644.788E-06
            2205             339     7.74442E-03     6.71600E-03
            2205             340     7.49535E-03     6.40120E-03
            2205            2863     595.502E-06     644.788E-06
            2205            2864     592.798E-06     641.856E-06
            2206             338     7.77151E-03     6.82511E-03
            2206             339     7.74442E-03     6.71600E-03
            2206            2864     592.798E-06     641.856E-06
            2206            2865     590.893E-06     638.051E-06
            2207             337     7.70539E-03     6.80641E-03
            2207             338     7.77151E-03     6.82511E-03
            2207            2865     590.893E-06     638.051E-06
            2207            2866     588.909E-06     635.618E-06
            2208             336     7.54730E-03     6.70716E-03
            2208             337     7.70539E-03     6.80641E-03
            2208            2866     588.909E-06     635.618E-06
            2208            2867     587.949E-06     632.395E-06
            2209             335     7.36588E-03     6.57530E-03
            2209             336     7.54730E-03     6.70716E-03
            2209            2867     587.949E-06     632.395E-06
            2209            2868     586.834E-06     630.107E-06
            2210             334     7.15231E-03     6.41538E-03
            2210             335     7.36588E-03     6.57530E-03
            2210            2868     586.834E-06     630.107E-06
            2210            2869     586.525E-06     627.359E-06
            2211             333     6.94137E-03     6.25929E-03
            2211             334     7.15231E-03     6.41538E-03
            2211            2869     586.525E-06     627.359E-06
            2211            2870     586.201E-06     625.195E-06
            2212             332     6.72367E-03     6.10095E-03
            2212             333     6.94137E-03     6.25929E-03
            2212            2870     586.201E-06     625.195E-06
            2212            2871     586.538E-06     622.827E-06
            2213             331     6.51993E-03     5.95930E-03
            2213             332     6.72367E-03     6.10095E-03
            2213            2871     586.538E-06     622.827E-06
            2213            2872     586.948E-06     620.833E-06
            2214             330     6.32010E-03     5.83096E-03
            2214             331     6.51993E-03     5.95930E-03
            2214            2872     586.948E-06     620.833E-06
            2214            2873     587.926E-06     618.836E-06
            2215             329     6.13994E-03     5.72297E-03
            2215             330     6.32010E-03     5.83096E-03
            2215            2873     587.926E-06     618.836E-06
            2215            2874     589.155E-06     616.991E-06
            2216             328     5.96655E-03     5.64594E-03
            2216             329     6.13994E-03     5.72297E-03
            2216            2874     589.155E-06     616.991E-06
            2216            2875     590.399E-06     615.291E-06
            2217             327     5.80047E-03     5.59056E-03
            2217             328     5.96655E-03     5.64594E-03
            2217            2875     590.399E-06     615.291E-06
            2217            2876     592.215E-06     612.606E-06
            2218             326     5.62463E-03     5.64659E-03
            2218             327     5.80047E-03     5.59056E-03
            2218            2876     592.215E-06     612.606E-06
            2218            2877     599.551E-06     621.044E-06
            2219             325     5.19252E-03     5.89992E-03
            2219             326     5.62463E-03     5.64659E-03
            2219            2877     599.551E-06     621.044E-06
            2219            2878     616.039E-06     628.697E-06
            2220              16     4.85683E-03     6.06121E-03
            2220             324     626.089E-06     626.199E-06
            2220             325     5.19252E-03     5.89992E-03
            2220            2878     616.039E-06     628.697E-06
            2221             539     630.255E-06     675.442E-06
            2221             540     669.845E-06     635.795E-06
            2221            2861     606.115E-06     657.438E-06
            2221            2879     648.390E-06     621.165E-06
            2222            2861     606.115E-06     657.438E-06
            2222            2862     598.928E-06     648.403E-06
            2222            2879     648.390E-06     621.165E-06
            2222            2880     641.553E-06     612.384E-06
            2223            2862     598.928E-06     648.403E-06
            2223            2863     595.502E-06     644.788E-06
            2223            2880     641.553E-06     612.384E-06
            2223            2881     639.228E-06     611.702E-06
            2224            2863     595.502E-06     644.788E-06
            2224            2864     592.798E-06     641.856E-06
            2224            2881     639.228E-06     611.702E-06
            2224            2882     636.510E-06     609.743E-06
            2225            2864     592.798E-06     641.856E-06
            2225            2865     590.893E-06     638.051E-06
            2225            2882     636.510E-06     609.743E-06
            2225            2883     633.771E-06     607.654E-06
            2226            2865     590.893E-06     638.051E-06
            2226            2866     588.909E-06     635.618E-06
            2226            2883     633.771E-06     607.654E-06
            2226            2884     630.742E-06     606.382E-06
            2227            2866     588.909E-06     635.618E-06
            2227            2867     587.949E-06     632.395E-06
            2227            2884     630.742E-06     606.382E-06
            2227            2885     628.286E-06     604.873E-06
            2228            2867     587.949E-06     632.395E-06
            2228            2868     586.834E-06     630.107E-06
            2228            2885     628.286E-06     604.873E-06
            2228            2886     625.512E-06     604.209E-06
            2229            2868     586.834E-06     630.107E-06
            2229            2869     586.525E-06     627.359E-06
            2229            2886     625.512E-06     604.209E-06
            2229            2887     623.255E-06     603.438E-06
            2230            2869     586.525E-06     627.359E-06
            2230            2870     586.201E-06     625.195E-06
            2230            2887     623.255E-06     603.438E-06
            2230            2888     620.778E-06     603.363E-06
            2231            2870     586.201E-06     625.195E-06
            2231            2871     586.538E-06     622.827E-06
            2231            2888     620.778E-06     603.363E-06
            2231            2889     618.746E-06     603.327E-06
            2232            2871     586.538E-06     622.827E-06
            2232            2872     586.948E-06     620.833E-06
            2232            2889     618.746E-06     603.327E-06
            2232            2890     616.562E-06     603.851E-06
            2233            2872     586.948E-06     620.833E-06
            2233            2873     587.926E-06     618.836E-06
            2233            2890     616.562E-06     603.851E-06
            2233            2891     614.748E-06     604.566E-06
            2234            2873     587.926E-06     618.836E-06
            2234            2874     589.155E-06     616.991E-06
            2234            2891     614.748E-06     604.566E-06
            2234            2892     612.963E-06     605.646E-06
            2235            2874     589.155E-06     616.991E-06
            2235            2875     590.399E-06     615.291E-06
            2235            2892     612.963E-06     605.646E-06
            2235            2893     611.013E-06     607.037E-06
            2236            2875     590.399E-06     615.291E-06
            2236            2876     592.215E-06     612.606E-06
            2236            2893     611.013E-06     607.037E-06
            2236            2894     609.511E-06     607.504E-06
            2237            2876     592.215E-06     612.606E-06
            2237            2877     599.551E-06     621.044E-06
            2237            2894     609.511E-06     607.504E-06
            2237            2895     612.824E-06     619.285E-06
            2238            2877     599.551E-06     621.044E-06
            2238            2878     616.039E-06     628.697E-06
            2238            2895     612.824E-06     619.285E-06
            2238            2896     624.848E-06     631.426E-06
            2239             323     632.700E-06     631.709E-06
            2239             324     626.089E-06     626.199E-06
            2239            2878     616.039E-06     628.697E-06
            2239            2896     624.848E-06     631.426E-06
            2240              26     662.599E-06     592.163E-06
            2240             540     669.845E-06     635.795E-06
            2240             583     681.294E-06     607.770E-06
            2240            2879     648.390E-06     621.165E-06
            2241             582     670.911E-06     600.250E-06
            2241             583     681.294E-06     607.770E-06
            2241            2879     648.390E-06     621.165E-06
            2241            2880     641.553E-06     612.384E-06
            2242             581     668.846E-06     600.352E-06
            2242             582     670.911E-06     600.250E-06
            2242            2880     641.553E-06     612.384E-06
            2242            2881     639.228E-06     611.702E-06
            2243             580     667.310E-06     598.970E-06
            2243             581     668.846E-06     600.352E-06
            2243            2881     639.228E-06     611.702E-06
            2243            2882     636.510E-06     609.743E-06
            2244             579     663.934E-06     599.060E-06
            2244             580     667.310E-06     598.970E-06
            2244            2882     636.510E-06     609.743E-06
            2244            2883     633.771E-06     607.654E-06
            2245             578     661.870E-06     598.279E-06
            2245             579     663.934E-06     599.060E-06
            2245            2883     633.771E-06     607.654E-06
            2245            2884     630.742E-06     606.382E-06
            2246             577     658.664E-06     598.949E-06
            2246             578     661.870E-06     598.279E-06
            2246            2884     630.742E-06     606.382E-06
            2246            2885     628.286E-06     604.873E-06
            2247             576     656.411E-06     599.293E-06
            2247             577     658.664E-06     598.949E-06
            2247            2885     628.286E-06     604.873E-06
            2247            2886     625.512E-06     604.209E-06
            2248             575     653.510E-06     600.698E-06
            2248             576     656.411E-06     599.293E-06
            2248            2886     625.512E-06     604.209E-06
            2248            2887     623.255E-06     603.438E-06
            2249             574     651.150E-06     602.089E-06
            2249             575     653.510E-06     600.698E-06
            2249            2887     623.255E-06     603.438E-06
            2249            2888     620.778E-06     603.363E-06
            2250             573     648.488E-06     604.329E-06
            2250             574     651.150E-06     602.089E-06
            2250            2888     620.778E-06     603.363E-06
            2250            2889     618.746E-06     603.327E-06
            2251             572     646.103E-06     606.683E-06
            2251             573     648.488E-06     604.329E-06
            2251            2889     618.746E-06     603.327E-06
            2251            2890     616.562E-06     603.851E-06
            2252             571     643.656E-06     609.786E-06
            2252             572     646.103E-06     606.683E-06
            2252            2890     616.562E-06     603.851E-06
            2252            2891     614.748E-06     604.566E-06
            2253             570     641.203E-06     613.124E-06
            2253             571     643.656E-06     609.786E-06
            2253            2891     614.748E-06     604.566E-06
            2253            2892     612.963E-06     605.646E-06
            2254             569     638.906E-06     616.580E-06
            2254             570     641.203E-06     613.124E-06
            2254            2892     612.963E-06     605.646E-06
            2254            2893     611.013E-06     607.037E-06
            2255             568     637.179E-06     621.632E-06
            2255             569     638.906E-06     616.580E-06
            2255            2893     611.013E-06     607.037E-06
            2255            2894     609.511E-06     607.504E-06
            2256             567     639.557E-06     634.982E-06
            2256             568     637.179E-06     621.632E-06
            2256            2894     609.511E-06     607.504E-06
            2256            2895     612.824E-06     619.285E-06
            2257             566     604.847E-06     612.216E-06
            2257             567     639.557E-06     634.982E-06
            2257            2895     612.824E-06     619.285E-06
            2257            2896     624.848E-06     631.426E-06
            2258              19     567.124E-06     578.968E-06
            2258             323     632.700E-06     631.709E-06
            2258             566     604.847E-06     612.216E-06
            2258            2896     624.848E-06     631.426E-06
            2259              28     153.115E-03     153.447E-03
            2259             559     156.391E-03     158.883E-03
            2259             584     143.832E-03     144.060E-03
            2259            2897     148.168E-03     150.611E-03
            2260             584     143.832E-03     144.060E-03
            2260             585     135.301E-03     135.996E-03
            2260            2897     148.168E-03     150.611E-03
            2260            2898     139.707E-03     142.482E-03
            2261             585     135.301E-03     135.996E-03
            2261             586     127.387E-03     128.107E-03
            2261            2898     139.707E-03     142.482E-03
            2261            2899     131.573E-03     133.986E-03
            2262             586     127.387E-03     128.107E-03
            2262             587     119.398E-03     120.538E-03
            2262            2899     131.573E-03     133.986E-03
            2262            2900     123.117E-03     125.829E-03
            2263             587     119.398E-03     120.538E-03
            2263             588     111.668E-03     112.839E-03
            2263            2900     123.117E-03     125.829E-03
            2263            2901     114.925E-03     117.424E-03
            2264             588     111.668E-03     112.839E-03
            2264             589     103.820E-03     105.206E-03
            2264            2901     114.925E-03     117.424E-03
            2264            2902     106.563E-03     109.201E-03
            2265             589     103.820E-03     105.206E-03
            2265             590     96.0424E-03     97.4562E-03
            2265            2902     106.563E-03     109.201E-03
            2265            2903     98.3151E-03     100.870E-03
            2266             590     96.0424E-03     97.4562E-03
            2266             591     88.1853E-03     89.7016E-03
            2266            2903     98.3151E-03     100.870E-03
            2266            2904     90.0045E-03     92.6044E-03
            2267             591     88.1853E-03     89.7016E-03
            2267             592     80.3321E-03     81.8809E-03
            2267            2904     90.0045E-03     92.6044E-03
            2267            2905     81.7296E-03     84.3063E-03
            2268             592     80.3321E-03     81.8809E-03
            2268             593     72.4369E-03     74.0472E-03
            2268            2905     81.7296E-03     84.3063E-03
            2268            2906     73.4396E-03     76.0268E-03
            2269             593     72.4369E-03     74.0472E-03
            2269             594     64.5404E-03     66.1857E-03
            2269            2906     73.4396E-03     76.0268E-03
            2269            2907     65.1598E-03     67.7416E-03
            2270             594     64.5404E-03     66.1857E-03
            2270             595     56.6387E-03     58.3250E-03
            2270            2907     65.1598E-03     67.7416E-03
            2270            2908     56.8791E-03     59.4638E-03
            2271             595     56.6387E-03     58.3250E-03
            2271             596     48.7706E-03     50.4642E-03
            2271            2908     56.8791E-03     59.4638E-03
            2271            2909     48.6068E-03     51.1875E-03
            2272             596     48.7706E-03     50.4642E-03
            2272             597     40.9573E-03     42.6284E-03
            2272            2909     48.6068E-03     51.1875E-03
            2272            2910     40.3391E-03     42.9225E-03
            2273             597     40.9573E-03     42.6284E-03
            2273             598     33.2784E-03     34.8419E-03
            2273            2910     40.3391E-03     42.9225E-03
            2273            2911     32.0884E-03     34.6685E-03
            2274             598     33.2784E-03     34.8419E-03
            2274             599     25.8158E-03     27.1549E-03
            2274            2911     32.0884E-03     34.6685E-03
            2274            2912     23.8671E-03     26.4401E-03
            2275             599     25.8158E-03     27.1549E-03
            2275             600     18.7680E-03     19.8336E-03
            2275            2912     23.8671E-03     26.4401E-03
            2275            2913     15.6990E-03     18.2829E-03
            2276             600     18.7680E-03     19.8336E-03
            2276             601     12.2562E-03     13.6045E-03
            2276            2913     15.6990E-03     18.2829E-03
            2276            2914     7.98837E-03     10.2812E-03
            2277              22     9.11713E-03     10.8966E-03
            2277             601     12.2562E-03     13.6045E-03
            2277             602     4.33294E-03     6.34317E-03
            2277            2914     7.98837E-03     10.2812E-03
            2278             559     156.391E-03     158.883E-03
            2278             560     159.172E-03     162.516E-03
            2278            2897     148.168E-03     150.611E-03
            2278            2915     152.188E-03     155.654E-03
            2279            2897     148.168E-03     150.611E-03
            2279            2898     139.707E-03     142.482E-03
            2279            2915     152.188E-03     155.654E-03
            2279            2916     144.150E-03     147.975E-03
            2280            2898     139.707E-03     142.482E-03
            2280            2899     131.573E-03     133.986E-03
            2280            2916     144.150E-03     147.975E-03
            2280            2917     136.163E-03     139.807E-03
            2281            2899     131.573E-03     133.986E-03
            2281            2900     123.117E-03     125.829E-03
            2281            2917     136.163E-03     139.807E-03
            2281            2918     127.751E-03     131.606E-03
            2282            2900     123.117E-03     125.829E-03
            2282            2901     114.925E-03     117.424E-03
            2282            2918     127.751E-03     131.606E-03
            2282            2919     119.455E-03     123.184E-03
            2283            2901     114.925E-03     117.424E-03
            2283            2902     106.563E-03     109.201E-03
            2283            2919     119.455E-03     123.184E-03
            2283            2920     110.963E-03     114.736E-03
            2284            2902     106.563E-03     109.201E-03
            2284            2903     98.3151E-03     100.870E-03
            2284            2920     110.963E-03     114.736E-03
            2284            2921     102.498E-03     106.205E-03
            2285            2903     98.3151E-03     100.870E-03
            2285            2904     90.0045E-03     92.6044E-03
            2285            2921     102.498E-03     106.205E-03
            2285            2922     93.9504E-03     97.6484E-03
            2286            2904     90.0045E-03     92.6044E-03
            2286            2905     81.7296E-03     84.3063E-03
            2286            2922     93.9504E-03     97.6484E-03
            2286            2923     85.4057E-03     89.0663E-03
            2287            2905     81.7296E-03     84.3063E-03
            2287            2906     73.4396E-03     76.0268E-03
            2287            2923     85.4057E-03     89.0663E-03
            2287            2924     76.8347E-03     80.4710E-03
            2288            2906     73.4396E-03     76.0268E-03
            2288            2907     65.1598E-03     67.7416E-03
            2288            2924     76.8347E-03     80.4710E-03
            2288            2925     68.2699E-03     71.8772E-03
            2289            2907     65.1598E-03     67.7416E-03
            2289            2908     56.8791E-03     59.4638E-03
            2289            2925     68.2699E-03     71.8772E-03
            2289            2926     59.7073E-03     63.2916E-03
            2290            2908     56.8791E-03     59.4638E-03
            2290            2909     48.6068E-03     51.1875E-03
            2290            2926     59.7073E-03     63.2916E-03
            2290            2927     51.1685E-03     54.7300E-03
            2291            2909     48.6068E-03     51.1875E-03
            2291            2910     40.3391E-03     42.9225E-03
            2291            2927     51.1685E-03     54.7300E-03
            2291            2928     42.6633E-03     46.2131E-03
            2292            2910     40.3391E-03     42.9225E-03
            2292            2911     32.0884E-03     34.6685E-03
            2292            2928     42.6633E-03     46.2131E-03
            2292            2929     34.2418E-03     37.7597E-03
            2293            2911     32.0884E-03     34.6685E-03
            2293            2912     23.8671E-03     26.4401E-03
            2293            2929     34.2418E-03     37.7597E-03
            2293            2930     26.0061E-03     29.4065E-03
            2294            2912     23.8671E-03     26.4401E-03
            2294            2913     15.6990E-03     18.2829E-03
            2294            2930     26.0061E-03     29.4065E-03
            2294            2931     18.1086E-03     21.3156E-03
            2295            2913     15.6990E-03     18.2829E-03
            2295            2914     7.98837E-03     10.2812E-03
            2295            2931     18.1086E-03     21.3156E-03
            2295            2932     10.9253E-03     14.2763E-03
            2296             602     4.33294E-03     6.34317E-03
            2296             603     7.57938E-03     11.1929E-03
            2296            2914     7.98837E-03     10.2812E-03
            2296            2932     10.9253E-03     14.2763E-03
            2297             560     159.172E-03     162.516E-03
            2297             561     168.401E-03     169.826E-03
            2297            2915     152.188E-03     155.654E-03
            2297            2933     160.826E-03     161.896E-03
            2298            2915     152.188E-03     155.654E-03
            2298            2916     144.150E-03     147.975E-03
            2298            2933     160.826E-03     161.896E-03
            2298            2934     152.507E-03     153.638E-03
            2299            2916     144.150E-03     147.975E-03
            2299            2917     136.163E-03     139.807E-03
            2299            2934     152.507E-03     153.638E-03
            2299            2935     143.724E-03     145.088E-03
            2300            2917     136.163E-03     139.807E-03
            2300            2918     127.751E-03     131.606E-03
            2300            2935     143.724E-03     145.088E-03
            2300            2936     135.044E-03     136.418E-03
            2301            2918     127.751E-03     131.606E-03
            2301            2919     119.455E-03     123.184E-03
            2301            2936     135.044E-03     136.418E-03
            2301            2937     126.184E-03     127.660E-03
            2302            2919     119.455E-03     123.184E-03
            2302            2920     110.963E-03     114.736E-03
            2302            2937     126.184E-03     127.660E-03
            2302            2938     117.336E-03     118.853E-03
            2303            2920     110.963E-03     114.736E-03
            2303            2921     102.498E-03     106.205E-03
            2303            2938     117.336E-03     118.853E-03
            2303            2939     108.408E-03     109.983E-03
            2304            2921     102.498E-03     106.205E-03
            2304            2922     93.9504E-03     97.6484E-03
            2304            2939     108.408E-03     109.983E-03
            2304            2940     99.4680E-03     101.092E-03
            2305            2922     93.9504E-03     97.6484E-03
            2305            2923     85.4057E-03     89.0663E-03
            2305            2940     99.4680E-03     101.092E-03
            2305            2941     90.4940E-03     92.1705E-03
            2306            2923     85.4057E-03     89.0663E-03
            2306            2924     76.8347E-03     80.4710E-03
            2306            2941     90.4940E-03     92.1705E-03
            2306            2942     81.5192E-03     83.2451E-03
            2307            2924     76.8347E-03     80.4710E-03
            2307            2925     68.2699E-03     71.8772E-03
            2307            2942     81.5192E-03     83.2451E-03
            2307            2943     72.5406E-03     74.3179E-03
            2308            2925     68.2699E-03     71.8772E-03
            2308            2926     59.7073E-03     63.2916E-03
            2308            2943     72.5406E-03     74.3179E-03
            2308            2944     63.5821E-03     65.4061E-03
            2309            2926     59.7073E-03     63.2916E-03
            2309            2927     51.1685E-03     54.7300E-03
            2309            2944     63.5821E-03     65.4061E-03
            2309            2945     54.6476E-03     56.5254E-03
            2310            2927     51.1685E-03     54.7300E-03
            2310            2928     42.6633E-03     46.2131E-03
            2310            2945     54.6476E-03     56.5254E-03
            2310            2946     45.7821E-03     47.6898E-03
            2311            2928     42.6633E-03     46.2131E-03
            2311            2929     34.2418E-03     37.7597E-03
            2311            2946     45.7821E-03     47.6898E-03
            2311            2947     37.0136E-03     38.9495E-03
            2312            2929     34.2418E-03     37.7597E-03
            2312            2930     26.0061E-03     29.4065E-03
            2312            2947     37.0136E-03     38.9495E-03
            2312            2948     28.4291E-03     30.4139E-03
            2313            2930     26.0061E-03     29.4065E-03
            2313            2931     18.1086E-03     21.3156E-03
            2313            2948     28.4291E-03     30.4139E-03
            2313            2949     20.3422E-03     22.3082E-03
            2314            2931     18.1086E-03     21.3156E-03
            2314            2932     10.9253E-03     14.2763E-03
            2314            2949     20.3422E-03     22.3082E-03
            2314            2950     13.3437E-03     16.2424E-03
            2315             603     7.57938E-03     11.1929E-03
            2315             604     10.2098E-03     14.0800E-03
            2315            2932     10.9253E-03     14.2763E-03
            2315            2950     13.3437E-03     16.2424E-03
            2316             561     168.401E-03     169.826E-03
            2316             562     174.599E-03     177.197E-03
            2316            2933     160.826E-03     161.896E-03
            2316            2951     164.208E-03     166.905E-03
            2317            2933     160.826E-03     161.896E-03
            2317            2934     152.507E-03     153.638E-03
            2317            2951     164.208E-03     166.905E-03
            2317            2952     154.240E-03     156.851E-03
            2318            2934     152.507E-03     153.638E-03
            2318            2935     143.724E-03     145.088E-03
            2318            2952     154.240E-03     156.851E-03
            2318            2953     144.878E-03     147.272E-03
            2319            2935     143.724E-03     145.088E-03
            2319            2936     135.044E-03     136.418E-03
            2319            2953     144.878E-03     147.272E-03
            2319            2954     135.534E-03     137.917E-03
            2320            2936     135.044E-03     136.418E-03
            2320            2937     126.184E-03     127.660E-03
            2320            2954     135.534E-03     137.917E-03
            2320            2955     126.331E-03     128.694E-03
            2321            2937     126.184E-03     127.660E-03
            2321            2938     117.336E-03     118.853E-03
            2321            2955     126.331E-03     128.694E-03
            2321            2956     117.156E-03     119.544E-03
            2322            2938     117.336E-03     118.853E-03
            2322            2939     108.408E-03     109.983E-03
            2322            2956     117.156E-03     119.544E-03
            2322            2957     108.030E-03     110.435E-03
            2323            2939     108.408E-03     109.983E-03
            2323            2940     99.4680E-03     101.092E-03
            2323            2957     108.030E-03     110.435E-03
            2323            2958     98.9181E-03     101.344E-03
            2324            2940     99.4680E-03     101.092E-03
            2324            2941     90.4940E-03     92.1705E-03
            2324            2958     98.9181E-03     101.344E-03
            2324            2959     89.8251E-03     92.2684E-03
            2325            2941     90.4940E-03     92.1705E-03
            2325            2942     81.5192E-03     83.2451E-03
            2325            2959     89.8251E-03     92.2684E-03
            2325            2960     80.7392E-03     83.2003E-03
            2326            2942     81.5192E-03     83.2451E-03
            2326            2943     72.5406E-03     74.3179E-03
            2326            2960     80.7392E-03     83.2003E-03
            2326            2961     71.6659E-03     74.1396E-03
            2327            2943     72.5406E-03     74.3179E-03
            2327            2944     63.5821E-03     65.4061E-03
            2327            2961     71.6659E-03     74.1396E-03
            2327            2962     62.6031E-03     65.0834E-03
            2328            2944     63.5821E-03     65.4061E-03
            2328            2945     54.6476E-03     56.5254E-03
            2328            2962     62.6031E-03     65.0834E-03
            2328            2963     53.5650E-03     56.0280E-03
            2329            2945     54.6476E-03     56.5254E-03
            2329            2946     45.7821E-03     47.6898E-03
            2329            2963     53.5650E-03     56.0280E-03
            2329            2964     44.5434E-03     46.9847E-03
            2330            2946     45.7821E-03     47.6898E-03
            2330            2947     37.0136E-03     38.9495E-03
            2330            2964     44.5434E-03     46.9847E-03
            2330            2965     35.5604E-03     37.9624E-03
            2331            2947     37.0136E-03     38.9495E-03
            2331            2948     28.4291E-03     30.4139E-03
            2331            2965     35.5604E-03     37.9624E-03
            2331            2966     26.5511E-03     29.0743E-03
            2332            2948     28.4291E-03     30.4139E-03
            2332            2949     20.3422E-03     22.3082E-03
            2332            2966     26.5511E-03     29.0743E-03
            2332            2967     17.3604E-03     20.8584E-03
            2333            2949     20.3422E-03     22.3082E-03
            2333            2950     13.3437E-03     16.2424E-03
            2333            2967     17.3604E-03     20.8584E-03
            2333            2968     9.37530E-03     13.2186E-03
            2334             604     10.2098E-03     14.0800E-03
            2334             605     6.04449E-03     9.41372E-03
            2334            2950     13.3437E-03     16.2424E-03
            2334            2968     9.37530E-03     13.2186E-03
            2335             562     174.599E-03     177.197E-03
            2335             563     175.323E-03     178.750E-03
            2335            2951     164.208E-03     166.905E-03
            2335            2969     163.522E-03     167.357E-03
            2336            2951     164.208E-03     166.905E-03
            2336            2952     154.240E-03     156.851E-03
            2336            2969     163.522E-03     167.357E-03
            2336            2970     153.628E-03     157.265E-03
            2337            2952     154.240E-03     156.851E-03
            2337            2953     144.878E-03     147.272E-03
            2337            2970     153.628E-03     157.265E-03
            2337            2971     144.277E-03     147.649E-03
            2338            2953     144.878E-03     147.272E-03
            2338            2954     135.534E-03     137.917E-03
            2338            2971     144.277E-03     147.649E-03
            2338            2972     134.984E-03     138.310E-03
            2339            2954     135.534E-03     137.917E-03
            2339            2955     126.331E-03     128.694E-03
            2339            2972     134.984E-03     138.310E-03
            2339            2973     125.809E-03     129.085E-03
            2340            2955     126.331E-03     128.694E-03
            2340            2956     117.156E-03     119.544E-03
            2340            2973     125.809E-03     129.085E-03
            2340            2974     116.651E-03     119.911E-03
            2341            2956     117.156E-03     119.544E-03
            2341            2957     108.030E-03     110.435E-03
            2341            2974     116.651E-03     119.911E-03
            2341            2975     107.533E-03     110.778E-03
            2342            2957     108.030E-03     110.435E-03
            2342            2958     98.9181E-03     101.344E-03
            2342            2975     107.533E-03     110.778E-03
            2342            2976     98.4278E-03     101.656E-03
            2343            2958     98.9181E-03     101.344E-03
            2343            2959     89.8251E-03     92.2684E-03
            2343            2976     98.4278E-03     101.656E-03
            2343            2977     89.3383E-03     92.5507E-03
            2344            2959     89.8251E-03     92.2684E-03
            2344            2960     80.7392E-03     83.2003E-03
            2344            2977     89.3383E-03     92.5507E-03
            2344            2978     80.2558E-03     83.4491E-03
            2345            2960     80.7392E-03     83.2003E-03
            2345            2961     71.6659E-03     74.1396E-03
            2345            2978     80.2558E-03     83.4491E-03
            2345            2979     71.1818E-03     74.3544E-03
            2346            2961     71.6659E-03     74.1396E-03
            2346            2962     62.6031E-03     65.0834E-03
            2346            2979     71.1818E-03     74.3544E-03
            2346            2980     62.1152E-03     65.2598E-03
            2347            2962     62.6031E-03     65.0834E-03
            2347            2963     53.5650E-03     56.0280E-03
            2347            2980     62.1152E-03     65.2598E-03
            2347            2981     53.0650E-03     56.1609E-03
            2348            2963     53.5650E-03     56.0280E-03
            2348            2964     44.5434E-03     46.9847E-03
            2348            2981     53.0650E-03     56.1609E-03
            2348            2982     44.0245E-03     47.0647E-03
            2349            2964     44.5434E-03     46.9847E-03
            2349            2965     35.5604E-03     37.9624E-03
            2349            2982     44.0245E-03     47.0647E-03
            2349            2983     34.9966E-03     37.9735E-03
            2350            2965     35.5604E-03     37.9624E-03
            2350            2966     26.5511E-03     29.0743E-03
            2350            2983     34.9966E-03     37.9735E-03
            2350            2984     25.9196E-03     28.9852E-03
            2351            2966     26.5511E-03     29.0743E-03
            2351            2967     17.3604E-03     20.8584E-03
            2351            2984     25.9196E-03     28.9852E-03
            2351            2985     16.6307E-03     20.5077E-03
            2352            2967     17.3604E-03     20.8584E-03
            2352            2968     9.37530E-03     13.2186E-03
            2352            2985     16.6307E-03     20.5077E-03
            2352            2986     8.07185E-03     12.3502E-03
            2353             605     6.04449E-03     9.41372E-03
            2353             606     4.23150E-03     8.23009E-03
            2353            2968     9.37530E-03     13.2186E-03
            2353            2986     8.07185E-03     12.3502E-03
            2354             563     175.323E-03     178.750E-03
            2354             564     169.638E-03     174.159E-03
            2354            2969     163.522E-03     167.357E-03
            2354            2987     159.604E-03     163.858E-03
            2355            2969     163.522E-03     167.357E-03
            2355            2970     153.628E-03     157.265E-03
            2355            2987     159.604E-03     163.858E-03
            2355            2988     150.884E-03     155.072E-03
            2356            2970     153.628E-03     157.265E-03
            2356            2971     144.277E-03     147.649E-03
            2356            2988     150.884E-03     155.072E-03
            2356            2989     142.064E-03     146.361E-03
            2357            2971     144.277E-03     147.649E-03
            2357            2972     134.984E-03     138.310E-03
            2357            2989     142.064E-03     146.361E-03
            2357            2990     133.439E-03     137.649E-03
            2358            2972     134.984E-03     138.310E-03
            2358            2973     125.809E-03     129.085E-03
            2358            2990     133.439E-03     137.649E-03
            2358            2991     124.634E-03     128.829E-03
            2359            2973     125.809E-03     129.085E-03
            2359            2974     116.651E-03     119.911E-03
            2359            2991     124.634E-03     128.829E-03
            2359            2992     115.819E-03     119.953E-03
            2360            2974     116.651E-03     119.911E-03
            2360            2975     107.533E-03     110.778E-03
            2360            2992     115.819E-03     119.953E-03
            2360            2993     106.919E-03     110.998E-03
            2361            2975     107.533E-03     110.778E-03
            2361            2976     98.4278E-03     101.656E-03
            2361            2993     106.919E-03     110.998E-03
            2361            2994     97.9981E-03     102.019E-03
            2362            2976     98.4278E-03     101.656E-03
            2362            2977     89.3383E-03     92.5507E-03
            2362            2994     97.9981E-03     102.019E-03
            2362            2995     89.0418E-03     93.0040E-03
            2363            2977     89.3383E-03     92.5507E-03
            2363            2978     80.2558E-03     83.4491E-03
            2363            2995     89.0418E-03     93.0040E-03
            2363            2996     80.0776E-03     83.9821E-03
            2364            2978     80.2558E-03     83.4491E-03
            2364            2979     71.1818E-03     74.3544E-03
            2364            2996     80.0776E-03     83.9821E-03
            2364            2997     71.1032E-03     74.9497E-03
            2365            2979     71.1818E-03     74.3544E-03
            2365            2980     62.1152E-03     65.2598E-03
            2365            2997     71.1032E-03     74.9497E-03
            2365            2998     62.1363E-03     65.9231E-03
            2366            2980     62.1152E-03     65.2598E-03
            2366            2981     53.0650E-03     56.1609E-03
            2366            2998     62.1363E-03     65.9231E-03
            2366            2999     53.1753E-03     56.9104E-03
            2367            2981     53.0650E-03     56.1609E-03
            2367            2982     44.0245E-03     47.0647E-03
            2367            2999     53.1753E-03     56.9104E-03
            2367            3000     44.2567E-03     47.9166E-03
            2368            2982     44.0245E-03     47.0647E-03
            2368            2983     34.9966E-03     37.9735E-03
            2368            3000     44.2567E-03     47.9166E-03
            2368            3001     35.3858E-03     38.9699E-03
            2369            2983     34.9966E-03     37.9735E-03
            2369            2984     25.9196E-03     28.9852E-03
            2369            3001     35.3858E-03     38.9699E-03
            2369            3002     26.6322E-03     30.1365E-03
            2370            2984     25.9196E-03     28.9852E-03
            2370            2985     16.6307E-03     20.5077E-03
            2370            3002     26.6322E-03     30.1365E-03
            2370            3003     18.2757E-03     21.4269E-03
            2371            2985     16.6307E-03     20.5077E-03
            2371            2986     8.07185E-03     12.3502E-03
            2371            3003     18.2757E-03     21.4269E-03
            2371            3004     10.5650E-03     14.2355E-03
            2372             606     4.23150E-03     8.23009E-03
            2372             607     6.88872E-03     11.3718E-03
            2372            2986     8.07185E-03     12.3502E-03
            2372            3004     10.5650E-03     14.2355E-03
            2373              29     164.106E-03     168.518E-03
            2373             564     169.638E-03     174.159E-03
            2373             625     154.979E-03     159.285E-03
            2373            2987     159.604E-03     163.858E-03
            2374             624     146.219E-03     151.056E-03
            2374             625     154.979E-03     159.285E-03
            2374            2987     159.604E-03     163.858E-03
            2374            2988     150.884E-03     155.072E-03
            2375             623     138.169E-03     143.080E-03
            2375             624     146.219E-03     151.056E-03
            2375            2988     150.884E-03     155.072E-03
            2375            2989     142.064E-03     146.361E-03
            2376             622     129.867E-03     134.974E-03
            2376             623     138.169E-03     143.080E-03
            2376            2989     142.064E-03     146.361E-03
            2376            2990     133.439E-03     137.649E-03
            2377             621     121.621E-03     126.666E-03
            2377             622     129.867E-03     134.974E-03
            2377            2990     133.439E-03     137.649E-03
            2377            2991     124.634E-03     128.829E-03
            2378             620     113.153E-03     118.198E-03
            2378             621     121.621E-03     126.666E-03
            2378            2991     124.634E-03     128.829E-03
            2378            2992     115.819E-03     119.953E-03
            2379             619     104.640E-03     109.591E-03
            2379             620     113.153E-03     118.198E-03
            2379            2992     115.819E-03     119.953E-03
            2379            2993     106.919E-03     110.998E-03
            2380             618     95.9922E-03     100.898E-03
            2380             619     104.640E-03     109.591E-03
            2380            2993     106.919E-03     110.998E-03
            2380            2994     97.9981E-03     102.019E-03
            2381             617     87.3149E-03     92.1343E-03
            2381             618     95.9922E-03     100.898E-03
            2381            2994     97.9981E-03     102.019E-03
            2381            2995     89.0418E-03     93.0040E-03
            2382             616     78.5696E-03     83.3355E-03
            2382             617     87.3149E-03     92.1343E-03
            2382            2995     89.0418E-03     93.0040E-03
            2382            2996     80.0776E-03     83.9821E-03
            2383             615     69.8170E-03     74.5107E-03
            2383             616     78.5696E-03     83.3355E-03
            2383            2996     80.0776E-03     83.9821E-03
            2383            2997     71.1032E-03     74.9497E-03
            2384             614     61.0418E-03     65.6882E-03
            2384             615     69.8170E-03     74.5107E-03
            2384            2997     71.1032E-03     74.9497E-03
            2384            2998     62.1363E-03     65.9231E-03
            2385             613     52.2845E-03     56.8757E-03
            2385             614     61.0418E-03     65.6882E-03
            2385            2998     62.1363E-03     65.9231E-03
            2385            2999     53.1753E-03     56.9104E-03
            2386             612     43.5622E-03     48.1024E-03
            2386             613     52.2845E-03     56.8757E-03
            2386            2999     53.1753E-03     56.9104E-03
            2386            3000     44.2567E-03     47.9166E-03
            2387             611     34.9635E-03     39.3570E-03
            2387             612     43.5622E-03     48.1024E-03
            2387            3000     44.2567E-03     47.9166E-03
            2387            3001     35.3858E-03     38.9699E-03
            2388             610     26.6181E-03     30.6606E-03
            2388             611     34.9635E-03     39.3570E-03
            2388            3001     35.3858E-03     38.9699E-03
            2388            3002     26.6322E-03     30.1365E-03
            2389             609     18.8319E-03     22.1626E-03
            2389             610     26.6181E-03     30.6606E-03
            2389            3002     26.6322E-03     30.1365E-03
            2389            3003     18.2757E-03     21.4269E-03
            2390             608     11.9976E-03     14.9161E-03
            2390             609     18.8319E-03     22.1626E-03
            2390            3003     18.2757E-03     21.4269E-03
            2390            3004     10.5650E-03     14.2355E-03
            2391              30     8.86073E-03     11.8484E-03
            2391             607     6.88872E-03     11.3718E-03
            2391             608     11.9976E-03     14.9161E-03
            2391            3004     10.5650E-03     14.2355E-03
            2392              17     4.32785E-03     3.06244E-03
            2392             302     5.98976E-03     4.58006E-03
            2392             672     8.52676E-03     6.66110E-03
            2392            3005     12.3491E-03     10.1310E-03
            2393             301     6.98896E-03     5.76107E-03
            2393             302     5.98976E-03     4.58006E-03
            2393            3005     12.3491E-03     10.1310E-03
            2393            3006     14.1373E-03     12.0971E-03
            2394             300     7.49535E-03     6.40120E-03
            2394             301     6.98896E-03     5.76107E-03
            2394            3006     14.1373E-03     12.0971E-03
            2394            3007     14.9824E-03     13.0660E-03
            2395             299     7.74442E-03     6.71600E-03
            2395             300     7.49535E-03     6.40120E-03
            2395            3007     14.9824E-03     13.0660E-03
            2395            3008     15.2016E-03     13.4268E-03
            2396             298     7.77151E-03     6.82511E-03
            2396             299     7.74442E-03     6.71600E-03
            2396            3008     15.2016E-03     13.4268E-03
            2396            3009     15.1077E-03     13.4179E-03
            2397             297     7.70539E-03     6.80641E-03
            2397             298     7.77151E-03     6.82511E-03
            2397            3009     15.1077E-03     13.4179E-03
            2397            3010     14.8023E-03     13.2190E-03
            2398             296     7.54730E-03     6.70716E-03
            2398             297     7.70539E-03     6.80641E-03
            2398            3010     14.8023E-03     13.2190E-03
            2398            3011     14.4112E-03     12.9089E-03
            2399             295     7.36588E-03     6.57530E-03
            2399             296     7.54730E-03     6.70716E-03
            2399            3011     14.4112E-03     12.9089E-03
            2399            3012     13.9624E-03     12.5529E-03
            2400             294     7.15231E-03     6.41538E-03
            2400             295     7.36588E-03     6.57530E-03
            2400            3012     13.9624E-03     12.5529E-03
            2400            3013     13.5011E-03     12.1798E-03
            2401             293     6.94137E-03     6.25929E-03
            2401             294     7.15231E-03     6.41538E-03
            2401            3013     13.5011E-03     12.1798E-03
            2401            3014     13.0373E-03     11.8130E-03
            2402             292     6.72367E-03     6.10095E-03
            2402             293     6.94137E-03     6.25929E-03
            2402            3014     13.0373E-03     11.8130E-03
            2402            3015     12.5883E-03     11.4648E-03
            2403             291     6.51993E-03     5.95930E-03
            2403             292     6.72367E-03     6.10095E-03
            2403            3015     12.5883E-03     11.4648E-03
            2403            3016     12.1573E-03     11.1477E-03
            2404             290     6.32010E-03     5.83096E-03
            2404             291     6.51993E-03     5.95930E-03
            2404            3016     12.1573E-03     11.1477E-03
            2404            3017     11.7564E-03     10.8667E-03
            2405             289     6.13994E-03     5.72297E-03
            2405             290     6.32010E-03     5.83096E-03
            2405            3017     11.7564E-03     10.8667E-03
            2405            3018     11.3762E-03     10.6362E-03
            2406             288     5.96655E-03     5.64594E-03
            2406             289     6.13994E-03     5.72297E-03
            2406            3018     11.3762E-03     10.6362E-03
            2406            3019     11.0270E-03     10.4722E-03
            2407             287     5.80047E-03     5.59056E-03
            2407             288     5.96655E-03     5.64594E-03
            2407            3019     11.0270E-03     10.4722E-03
            2407            3020     10.6702E-03     10.3899E-03
            2408             286     5.62463E-03     5.64659E-03
            2408             287     5.80047E-03     5.59056E-03
            2408            3020     10.6702E-03     10.3899E-03
            2408            3021     10.2438E-03     10.5571E-03
            2409             285     5.19252E-03     5.89992E-03
            2409             286     5.62463E-03     5.64659E-03
            2409            3021     10.2438E-03     10.5571E-03
            2409            3022     9.90590E-03     10.9447E-03
            2410              16     4.85683E-03     6.06121E-03
            2410             285     5.19252E-03     5.89992E-03
            2410             454     9.79616E-03     11.1499E-03
            2410            3022     9.90590E-03     10.9447E-03
            2411             671     10.0538E-03     9.67075E-03
            2411             672     8.52676E-03     6.66110E-03
            2411            3005     12.3491E-03     10.1310E-03
            2411            3023     13.8339E-03     12.8633E-03
            2412            3005     12.3491E-03     10.1310E-03
            2412            3006     14.1373E-03     12.0971E-03
            2412            3023     13.8339E-03     12.8633E-03
            2412            3024     15.3975E-03     14.2964E-03
            2413            3006     14.1373E-03     12.0971E-03
            2413            3007     14.9824E-03     13.0660E-03
            2413            3024     15.3975E-03     14.2964E-03
            2413            3025     15.8680E-03     14.7525E-03
            2414            3007     14.9824E-03     13.0660E-03
            2414            3008     15.2016E-03     13.4268E-03
            2414            3025     15.8680E-03     14.7525E-03
            2414            3026     15.7216E-03     14.6155E-03
            2415            3008     15.2016E-03     13.4268E-03
            2415            3009     15.1077E-03     13.4179E-03
            2415            3026     15.7216E-03     14.6155E-03
            2415            3027     15.2808E-03     14.2309E-03
            2416            3009     15.1077E-03     13.4179E-03
            2416            3010     14.8023E-03     13.2190E-03
            2416            3027     15.2808E-03     14.2309E-03
            2416            3028     14.7445E-03     13.7342E-03
            2417            3010     14.8023E-03     13.2190E-03
            2417            3011     14.4112E-03     12.9089E-03
            2417            3028     14.7445E-03     13.7342E-03
            2417            3029     14.1664E-03     13.2091E-03
            2418            3011     14.4112E-03     12.9089E-03
            2418            3012     13.9624E-03     12.5529E-03
            2418            3029     14.1664E-03     13.2091E-03
            2418            3030     13.5978E-03     12.6884E-03
            2419            3012     13.9624E-03     12.5529E-03
            2419            3013     13.5011E-03     12.1798E-03
            2419            3030     13.5978E-03     12.6884E-03
            2419            3031     13.0471E-03     12.1920E-03
            2420            3013     13.5011E-03     12.1798E-03
            2420            3014     13.0373E-03     11.8130E-03
            2420            3031     13.0471E-03     12.1920E-03
            2420            3032     12.5253E-03     11.7269E-03
            2421            3014     13.0373E-03     11.8130E-03
            2421            3015     12.5883E-03     11.4648E-03
            2421            3032     12.5253E-03     11.7269E-03
            2421            3033     12.0355E-03     11.2995E-03
            2422            3015     12.5883E-03     11.4648E-03
            2422            3016     12.1573E-03     11.1477E-03
            2422            3033     12.0355E-03     11.2995E-03
            2422            3034     11.5796E-03     10.9151E-03
            2423            3016     12.1573E-03     11.1477E-03
            2423            3017     11.7564E-03     10.8667E-03
            2423            3034     11.5796E-03     10.9151E-03
            2423            3035     11.1618E-03     10.5788E-03
            2424            3017     11.7564E-03     10.8667E-03
            2424            3018     11.3762E-03     10.6362E-03
            2424            3035     11.1618E-03     10.5788E-03
            2424            3036     10.7787E-03     10.3038E-03
            2425            3018     11.3762E-03     10.6362E-03
            2425            3019     11.0270E-03     10.4722E-03
            2425            3036     10.7787E-03     10.3038E-03
            2425            3037     10.4302E-03     10.0976E-03
            2426            3019     11.0270E-03     10.4722E-03
            2426            3020     10.6702E-03     10.3899E-03
            2426            3037     10.4302E-03     10.0976E-03
            2426            3038     10.0838E-03     10.0237E-03
            2427            3020     10.6702E-03     10.3899E-03
            2427            3021     10.2438E-03     10.5571E-03
            2427            3038     10.0838E-03     10.0237E-03
            2427            3039     9.84597E-03     10.0531E-03
            2428            3021     10.2438E-03     10.5571E-03
            2428            3022     9.90590E-03     10.9447E-03
            2428            3039     9.84597E-03     10.0531E-03
            2428            3040     9.99523E-03     9.85843E-03
            2429             453     10.2000E-03     9.64836E-03
            2429             454     9.79616E-03     11.1499E-03
            2429            3022     9.90590E-03     10.9447E-03
            2429            3040     9.99523E-03     9.85843E-03
            2430             670     13.0495E-03     13.2009E-03
            2430             671     10.0538E-03     9.67075E-03
            2430            3023     13.8339E-03     12.8633E-03
            2430            3041     14.8627E-03     14.9266E-03
            2431            3023     13.8339E-03     12.8633E-03
            2431            3024     15.3975E-03     14.2964E-03
            2431            3041     14.8627E-03     14.9266E-03
            2431            3042     16.1953E-03     15.9292E-03
            2432            3024     15.3975E-03     14.2964E-03
            2432            3025     15.8680E-03     14.7525E-03
            2432            3042     16.1953E-03     15.9292E-03
            2432            3043     16.3137E-03     15.9359E-03
            2433            3025     15.8680E-03     14.7525E-03
            2433            3026     15.7216E-03     14.6155E-03
            2433            3043     16.3137E-03     15.9359E-03
            2433            3044     15.8921E-03     15.4778E-03
            2434            3026     15.7216E-03     14.6155E-03
            2434            3027     15.2808E-03     14.2309E-03
            2434            3044     15.8921E-03     15.4778E-03
            2434            3045     15.2505E-03     14.8380E-03
            2435            3027     15.2808E-03     14.2309E-03
            2435            3028     14.7445E-03     13.7342E-03
            2435            3045     15.2505E-03     14.8380E-03
            2435            3046     14.5493E-03     14.1432E-03
            2436            3028     14.7445E-03     13.7342E-03
            2436            3029     14.1664E-03     13.2091E-03
            2436            3046     14.5493E-03     14.1432E-03
            2436            3047     13.8537E-03     13.4637E-03
            2437            3029     14.1664E-03     13.2091E-03
            2437            3030     13.5978E-03     12.6884E-03
            2437            3047     13.8537E-03     13.4637E-03
            2437            3048     13.1957E-03     12.8209E-03
            2438            3030     13.5978E-03     12.6884E-03
            2438            3031     13.0471E-03     12.1920E-03
            2438            3048     13.1957E-03     12.8209E-03
            2438            3049     12.5789E-03     12.2238E-03
            2439            3031     13.0471E-03     12.1920E-03
            2439            3032     12.5253E-03     11.7269E-03
            2439            3049     12.5789E-03     12.2238E-03
            2439            3050     12.0100E-03     11.6749E-03
            2440            3032     12.5253E-03     11.7269E-03
            2440            3033     12.0355E-03     11.2995E-03
            2440            3050     12.0100E-03     11.6749E-03
            2440            3051     11.4838E-03     11.1751E-03
            2441            3033     12.0355E-03     11.2995E-03
            2441            3034     11.5796E-03     10.9151E-03
            2441            3051     11.4838E-03     11.1751E-03
            2441            3052     11.0075E-03     10.7254E-03
            2442            3034     11.5796E-03     10.9151E-03
            2442            3035     11.1618E-03     10.5788E-03
            2442            3052     11.0075E-03     10.7254E-03
            2442            3053     10.5737E-03     10.3331E-03
            2443            3035     11.1618E-03     10.5788E-03
            2443            3036     10.7787E-03     10.3038E-03
            2443            3053     10.5737E-03     10.3331E-03
            2443            3054     10.1997E-03     9.99958E-03
            2444            3036     10.7787E-03     10.3038E-03
            2444            3037     10.4302E-03     10.0976E-03
            2444            3054     10.1997E-03     9.99958E-03
            2444            3055     9.87990E-03     9.72671E-03
            2445            3037     10.4302E-03     10.0976E-03
            2445            3038     10.0838E-03     10.0237E-03
            2445            3055     9.87990E-03     9.72671E-03
            2445            3056     9.65282E-03     9.52374E-03
            2446            3038     10.0838E-03     10.0237E-03
            2446            3039     9.84597E-03     10.0531E-03
            2446            3056     9.65282E-03     9.52374E-03
            2446            3057     9.64360E-03     9.23359E-03
            2447            3039     9.84597E-03     10.0531E-03
            2447            3040     9.99523E-03     9.85843E-03
            2447            3057     9.64360E-03     9.23359E-03
            2447            3058     9.70156E-03     8.82657E-03
            2448             452     9.69565E-03     8.62320E-03
            2448             453     10.2000E-03     9.64836E-03
            2448            3040     9.99523E-03     9.85843E-03
            2448            3058     9.70156E-03     8.82657E-03
            2449             669     16.5360E-03     16.9393E-03
            2449             670     13.0495E-03     13.2009E-03
            2449            3041     14.8627E-03     14.9266E-03
            2449            3059     16.3714E-03     16.9116E-03
            2450            3041     14.8627E-03     14.9266E-03
            2450            3042     16.1953E-03     15.9292E-03
            2450            3059     16.3714E-03     16.9116E-03
            2450            3060     16.6034E-03     16.9891E-03
            2451            3042     16.1953E-03     15.9292E-03
            2451            3043     16.3137E-03     15.9359E-03
            2451            3060     16.6034E-03     16.9891E-03
            2451            3061     16.2717E-03     16.5573E-03
            2452            3043     16.3137E-03     15.9359E-03
            2452            3044     15.8921E-03     15.4778E-03
            2452            3061     16.2717E-03     16.5573E-03
            2452            3062     15.6476E-03     15.8985E-03
            2453            3044     15.8921E-03     15.4778E-03
            2453            3045     15.2505E-03     14.8380E-03
            2453            3062     15.6476E-03     15.8985E-03
            2453            3063     14.9100E-03     15.1181E-03
            2454            3045     15.2505E-03     14.8380E-03
            2454            3046     14.5493E-03     14.1432E-03
            2454            3063     14.9100E-03     15.1181E-03
            2454            3064     14.1367E-03     14.3403E-03
            2455            3046     14.5493E-03     14.1432E-03
            2455            3047     13.8537E-03     13.4637E-03
            2455            3064     14.1367E-03     14.3403E-03
            2455            3065     13.4029E-03     13.5891E-03
            2456            3047     13.8537E-03     13.4637E-03
            2456            3048     13.1957E-03     12.8209E-03
            2456            3065     13.4029E-03     13.5891E-03
            2456            3066     12.7041E-03     12.8845E-03
            2457            3048     13.1957E-03     12.8209E-03
            2457            3049     12.5789E-03     12.2238E-03
            2457            3066     12.7041E-03     12.8845E-03
            2457            3067     12.0607E-03     12.2294E-03
            2458            3049     12.5789E-03     12.2238E-03
            2458            3050     12.0100E-03     11.6749E-03
            2458            3067     12.0607E-03     12.2294E-03
            2458            3068     11.4626E-03     11.6228E-03
            2459            3050     12.0100E-03     11.6749E-03
            2459            3051     11.4838E-03     11.1751E-03
            2459            3068     11.4626E-03     11.6228E-03
            2459            3069     10.9195E-03     11.0664E-03
            2460            3051     11.4838E-03     11.1751E-03
            2460            3052     11.0075E-03     10.7254E-03
            2460            3069     10.9195E-03     11.0664E-03
            2460            3070     10.4236E-03     10.5622E-03
            2461            3052     11.0075E-03     10.7254E-03
            2461            3053     10.5737E-03     10.3331E-03
            2461            3070     10.4236E-03     10.5622E-03
            2461            3071     9.99104E-03     10.1114E-03
            2462            3053     10.5737E-03     10.3331E-03
            2462            3054     10.1997E-03     9.99958E-03
            2462            3071     9.99104E-03     10.1114E-03
            2462            3072     9.61654E-03     9.71690E-03
            2463            3054     10.1997E-03     9.99958E-03
            2463            3055     9.87990E-03     9.72671E-03
            2463            3072     9.61654E-03     9.71690E-03
            2463            3073     9.33996E-03     9.37500E-03
            2464            3055     9.87990E-03     9.72671E-03
            2464            3056     9.65282E-03     9.52374E-03
            2464            3073     9.33996E-03     9.37500E-03
            2464            3074     9.22335E-03     8.99136E-03
            2465            3056     9.65282E-03     9.52374E-03
            2465            3057     9.64360E-03     9.23359E-03
            2465            3074     9.22335E-03     8.99136E-03
            2465            3075     9.18428E-03     8.59265E-03
            2466            3057     9.64360E-03     9.23359E-03
            2466            3058     9.70156E-03     8.82657E-03
            2466            3075     9.18428E-03     8.59265E-03
            2466            3076     9.19949E-03     8.35779E-03
            2467             451     9.23667E-03     8.30165E-03
            2467             452     9.69565E-03     8.62320E-03
            2467            3058     9.70156E-03     8.82657E-03
            2467            3076     9.19949E-03     8.35779E-03
            2468             668     20.1019E-03     20.6022E-03
            2468             669     16.5360E-03     16.9393E-03
            2468            3059     16.3714E-03     16.9116E-03
            2468            3077     17.8756E-03     18.6508E-03
            2469            3059     16.3714E-03     16.9116E-03
            2469            3060     16.6034E-03     16.9891E-03
            2469            3077     17.8756E-03     18.6508E-03
            2469            3078     16.5821E-03     17.5391E-03
            2470            3060     16.6034E-03     16.9891E-03
            2470            3061     16.2717E-03     16.5573E-03
            2470            3078     16.5821E-03     17.5391E-03
            2470            3079     15.8124E-03     16.7451E-03
            2471            3061     16.2717E-03     16.5573E-03
            2471            3062     15.6476E-03     15.8985E-03
            2471            3079     15.8124E-03     16.7451E-03
            2471            3080     15.0513E-03     15.9131E-03
            2472            3062     15.6476E-03     15.8985E-03
            2472            3063     14.9100E-03     15.1181E-03
            2472            3080     15.0513E-03     15.9131E-03
            2472            3081     14.2681E-03     15.1125E-03
            2473            3063     14.9100E-03     15.1181E-03
            2473            3064     14.1367E-03     14.3403E-03
            2473            3081     14.2681E-03     15.1125E-03
            2473            3082     13.5273E-03     14.3281E-03
            2474            3064     14.1367E-03     14.3403E-03
            2474            3065     13.4029E-03     13.5891E-03
            2474            3082     13.5273E-03     14.3281E-03
            2474            3083     12.7988E-03     13.5794E-03
            2475            3065     13.4029E-03     13.5891E-03
            2475            3066     12.7041E-03     12.8845E-03
            2475            3083     12.7988E-03     13.5794E-03
            2475            3084     12.1193E-03     12.8668E-03
            2476            3066     12.7041E-03     12.8845E-03
            2476            3067     12.0607E-03     12.2294E-03
            2476            3084     12.1193E-03     12.8668E-03
            2476            3085     11.4726E-03     12.1903E-03
            2477            3067     12.0607E-03     12.2294E-03
            2477            3068     11.4626E-03     11.6228E-03
            2477            3085     11.4726E-03     12.1903E-03
            2477            3086     10.8759E-03     11.5546E-03
            2478            3068     11.4626E-03     11.6228E-03
            2478            3069     10.9195E-03     11.0664E-03
            2478            3086     10.8759E-03     11.5546E-03
            2478            3087     10.3226E-03     10.9588E-03
            2479            3069     10.9195E-03     11.0664E-03
            2479            3070     10.4236E-03     10.5622E-03
            2479            3087     10.3226E-03     10.9588E-03
            2479            3088     9.82708E-03     10.4089E-03
            2480            3070     10.4236E-03     10.5622E-03
            2480            3071     9.99104E-03     10.1114E-03
            2480            3088     9.82708E-03     10.4089E-03
            2480            3089     9.38673E-03     9.90759E-03
            2481            3071     9.99104E-03     10.1114E-03
            2481            3072     9.61654E-03     9.71690E-03
            2481            3089     9.38673E-03     9.90759E-03
            2481            3090     9.02476E-03     9.45568E-03
            2482            3072     9.61654E-03     9.71690E-03
            2482            3073     9.33996E-03     9.37500E-03
            2482            3090     9.02476E-03     9.45568E-03
            2482            3091     8.75145E-03     9.04366E-03
            2483            3073     9.33996E-03     9.37500E-03
            2483            3074     9.22335E-03     8.99136E-03
            2483            3091     8.75145E-03     9.04366E-03
            2483            3092     8.59785E-03     8.65001E-03
            2484            3074     9.22335E-03     8.99136E-03
            2484            3075     9.18428E-03     8.59265E-03
            2484            3092     8.59785E-03     8.65001E-03
            2484            3093     8.62922E-03     8.21736E-03
            2485            3075     9.18428E-03     8.59265E-03
            2485            3076     9.19949E-03     8.35779E-03
            2485            3093     8.62922E-03     8.21736E-03
            2485            3094     8.70754E-03     7.78586E-03
            2486             450     8.71763E-03     7.58785E-03
            2486             451     9.23667E-03     8.30165E-03
            2486            3076     9.19949E-03     8.35779E-03
            2486            3094     8.70754E-03     7.78586E-03
            2487             667     22.6129E-03     23.4729E-03
            2487             668     20.1019E-03     20.6022E-03
            2487            3077     17.8756E-03     18.6508E-03
            2487            3095     18.1582E-03     19.6458E-03
            2488            3077     17.8756E-03     18.6508E-03
            2488            3078     16.5821E-03     17.5391E-03
            2488            3095     18.1582E-03     19.6458E-03
            2488            3096     16.2084E-03     17.7905E-03
            2489            3078     16.5821E-03     17.5391E-03
            2489            3079     15.8124E-03     16.7451E-03
            2489            3096     16.2084E-03     17.7905E-03
            2489            3097     15.0655E-03     16.6184E-03
            2490            3079     15.8124E-03     16.7451E-03
            2490            3080     15.0513E-03     15.9131E-03
            2490            3097     15.0655E-03     16.6184E-03
            2490            3098     14.2028E-03     15.7202E-03
            2491            3080     15.0513E-03     15.9131E-03
            2491            3081     14.2681E-03     15.1125E-03
            2491            3098     14.2028E-03     15.7202E-03
            2491            3099     13.4733E-03     14.9377E-03
            2492            3081     14.2681E-03     15.1125E-03
            2492            3082     13.5273E-03     14.3281E-03
            2492            3099     13.4733E-03     14.9377E-03
            2492            3100     12.7702E-03     14.1992E-03
            2493            3082     13.5273E-03     14.3281E-03
            2493            3083     12.7988E-03     13.5794E-03
            2493            3100     12.7702E-03     14.1992E-03
            2493            3101     12.1051E-03     13.4892E-03
            2494            3083     12.7988E-03     13.5794E-03
            2494            3084     12.1193E-03     12.8668E-03
            2494            3101     12.1051E-03     13.4892E-03
            2494            3102     11.4527E-03     12.7941E-03
            2495            3084     12.1193E-03     12.8668E-03
            2495            3085     11.4726E-03     12.1903E-03
            2495            3102     11.4527E-03     12.7941E-03
            2495            3103     10.8333E-03     12.1221E-03
            2496            3085     11.4726E-03     12.1903E-03
            2496            3086     10.8759E-03     11.5546E-03
            2496            3103     10.8333E-03     12.1221E-03
            2496            3104     10.2431E-03     11.4704E-03
            2497            3086     10.8759E-03     11.5546E-03
            2497            3087     10.3226E-03     10.9588E-03
            2497            3104     10.2431E-03     11.4704E-03
            2497            3105     9.69788E-03     10.8509E-03
            2498            3087     10.3226E-03     10.9588E-03
            2498            3088     9.82708E-03     10.4089E-03
            2498            3105     9.69788E-03     10.8509E-03
            2498            3106     9.20090E-03     10.2630E-03
            2499            3088     9.82708E-03     10.4089E-03
            2499            3089     9.38673E-03     9.90759E-03
            2499            3106     9.20090E-03     10.2630E-03
            2499            3107     8.76641E-03     9.71694E-03
            2500            3089     9.38673E-03     9.90759E-03
            2500            3090     9.02476E-03     9.45568E-03
            2500            3107     8.76641E-03     9.71694E-03
            2500            3108     8.40042E-03     9.21576E-03
            2501            3090     9.02476E-03     9.45568E-03
            2501            3091     8.75145E-03     9.04366E-03
            2501            3108     8.40042E-03     9.21576E-03
            2501            3109     8.11374E-03     8.75694E-03
            2502            3091     8.75145E-03     9.04366E-03
            2502            3092     8.59785E-03     8.65001E-03
            2502            3109     8.11374E-03     8.75694E-03
            2502            3110     7.89044E-03     8.39145E-03
            2503            3092     8.59785E-03     8.65001E-03
            2503            3093     8.62922E-03     8.21736E-03
            2503            3110     7.89044E-03     8.39145E-03
            2503            3111     7.81080E-03     8.05658E-03
            2504            3093     8.62922E-03     8.21736E-03
            2504            3094     8.70754E-03     7.78586E-03
            2504            3111     7.81080E-03     8.05658E-03
            2504            3112     7.99140E-03     7.63222E-03
            2505             449     8.15218E-03     7.39893E-03
            2505             450     8.71763E-03     7.58785E-03
            2505            3094     8.70754E-03     7.78586E-03
            2505            3112     7.99140E-03     7.63222E-03
            2506             666     22.4274E-03     24.9761E-03
            2506             667     22.6129E-03     23.4729E-03
            2506            3095     18.1582E-03     19.6458E-03
            2506            3113     17.8310E-03     20.2326E-03
            2507            3095     18.1582E-03     19.6458E-03
            2507            3096     16.2084E-03     17.7905E-03
            2507            3113     17.8310E-03     20.2326E-03
            2507            3114     15.6066E-03     17.9127E-03
            2508            3096     16.2084E-03     17.7905E-03
            2508            3097     15.0655E-03     16.6184E-03
            2508            3114     15.6066E-03     17.9127E-03
            2508            3115     14.2513E-03     16.4861E-03
            2509            3097     15.0655E-03     16.6184E-03
            2509            3098     14.2028E-03     15.7202E-03
            2509            3115     14.2513E-03     16.4861E-03
            2509            3116     13.3706E-03     15.5549E-03
            2510            3098     14.2028E-03     15.7202E-03
            2510            3099     13.4733E-03     14.9377E-03
            2510            3116     13.3706E-03     15.5549E-03
            2510            3117     12.6531E-03     14.7797E-03
            2511            3099     13.4733E-03     14.9377E-03
            2511            3100     12.7702E-03     14.1992E-03
            2511            3117     12.6531E-03     14.7797E-03
            2511            3118     12.0056E-03     14.0827E-03
            2512            3100     12.7702E-03     14.1992E-03
            2512            3101     12.1051E-03     13.4892E-03
            2512            3118     12.0056E-03     14.0827E-03
            2512            3119     11.3733E-03     13.3948E-03
            2513            3101     12.1051E-03     13.4892E-03
            2513            3102     11.4527E-03     12.7941E-03
            2513            3119     11.3733E-03     13.3948E-03
            2513            3120     10.7575E-03     12.7195E-03
            2514            3102     11.4527E-03     12.7941E-03
            2514            3103     10.8333E-03     12.1221E-03
            2514            3120     10.7575E-03     12.7195E-03
            2514            3121     10.1543E-03     12.0451E-03
            2515            3103     10.8333E-03     12.1221E-03
            2515            3104     10.2431E-03     11.4704E-03
            2515            3121     10.1543E-03     12.0451E-03
            2515            3122     9.57911E-03     11.3871E-03
            2516            3104     10.2431E-03     11.4704E-03
            2516            3105     9.69788E-03     10.8509E-03
            2516            3122     9.57911E-03     11.3871E-03
            2516            3123     9.03955E-03     10.7433E-03
            2517            3105     9.69788E-03     10.8509E-03
            2517            3106     9.20090E-03     10.2630E-03
            2517            3123     9.03955E-03     10.7433E-03
            2517            3124     8.54817E-03     10.1288E-03
            2518            3106     9.20090E-03     10.2630E-03
            2518            3107     8.76641E-03     9.71694E-03
            2518            3124     8.54817E-03     10.1288E-03
            2518            3125     8.11793E-03     9.54108E-03
            2519            3107     8.76641E-03     9.71694E-03
            2519            3108     8.40042E-03     9.21576E-03
            2519            3125     8.11793E-03     9.54108E-03
            2519            3126     7.75253E-03     8.99488E-03
            2520            3108     8.40042E-03     9.21576E-03
            2520            3109     8.11374E-03     8.75694E-03
            2520            3126     7.75253E-03     8.99488E-03
            2520            3127     7.45944E-03     8.50286E-03
            2521            3109     8.11374E-03     8.75694E-03
            2521            3110     7.89044E-03     8.39145E-03
            2521            3127     7.45944E-03     8.50286E-03
            2521            3128     7.22520E-03     8.07504E-03
            2522            3110     7.89044E-03     8.39145E-03
            2522            3111     7.81080E-03     8.05658E-03
            2522            3128     7.22520E-03     8.07504E-03
            2522            3129     6.99986E-03     7.83684E-03
            2523            3111     7.81080E-03     8.05658E-03
            2523            3112     7.99140E-03     7.63222E-03
            2523            3129     6.99986E-03     7.83684E-03
            2523            3130     6.92243E-03     7.70752E-03
            2524             448     6.95681E-03     7.62027E-03
            2524             449     8.15218E-03     7.39893E-03
            2524            3112     7.99140E-03     7.63222E-03
            2524            3130     6.92243E-03     7.70752E-03
            2525             665     29.8224E-03     30.1202E-03
            2525             666     22.4274E-03     24.9761E-03
            2525            3113     17.8310E-03     20.2326E-03
            2525            3131     28.4530E-03     28.6007E-03
            2526            3113     17.8310E-03     20.2326E-03
            2526            3114     15.6066E-03     17.9127E-03
            2526            3131     28.4530E-03     28.6007E-03
            2526            3132     27.3083E-03     27.5773E-03
            2527            3114     15.6066E-03     17.9127E-03
            2527            3115     14.2513E-03     16.4861E-03
            2527            3132     27.3083E-03     27.5773E-03
            2527            3133     26.3763E-03     26.7105E-03
            2528            3115     14.2513E-03     16.4861E-03
            2528            3116     13.3706E-03     15.5549E-03
            2528            3133     26.3763E-03     26.7105E-03
            2528            3134     25.4082E-03     25.8248E-03
            2529            3116     13.3706E-03     15.5549E-03
            2529            3117     12.6531E-03     14.7797E-03
            2529            3134     25.4082E-03     25.8248E-03
            2529            3135     24.3742E-03     24.8423E-03
            2530            3117     12.6531E-03     14.7797E-03
            2530            3118     12.0056E-03     14.0827E-03
            2530            3135     24.3742E-03     24.8423E-03
            2530            3136     23.2594E-03     23.7587E-03
            2531            3118     12.0056E-03     14.0827E-03
            2531            3119     11.3733E-03     13.3948E-03
            2531            3136     23.2594E-03     23.7587E-03
            2531            3137     22.0656E-03     22.5855E-03
            2532            3119     11.3733E-03     13.3948E-03
            2532            3120     10.7575E-03     12.7195E-03
            2532            3137     22.0656E-03     22.5855E-03
            2532            3138     20.8320E-03     21.3566E-03
            2533            3120     10.7575E-03     12.7195E-03
            2533            3121     10.1543E-03     12.0451E-03
            2533            3138     20.8320E-03     21.3566E-03
            2533            3139     19.5666E-03     20.0875E-03
            2534            3121     10.1543E-03     12.0451E-03
            2534            3122     9.57911E-03     11.3871E-03
            2534            3139     19.5666E-03     20.0875E-03
            2534            3140     18.3094E-03     18.8145E-03
            2535            3122     9.57911E-03     11.3871E-03
            2535            3123     9.03955E-03     10.7433E-03
            2535            3140     18.3094E-03     18.8145E-03
            2535            3141     17.0669E-03     17.5473E-03
            2536            3123     9.03955E-03     10.7433E-03
            2536            3124     8.54817E-03     10.1288E-03
            2536            3141     17.0669E-03     17.5473E-03
            2536            3142     15.8787E-03     16.3170E-03
            2537            3124     8.54817E-03     10.1288E-03
            2537            3125     8.11793E-03     9.54108E-03
            2537            3142     15.8787E-03     16.3170E-03
            2537            3143     14.7491E-03     15.1385E-03
            2538            3125     8.11793E-03     9.54108E-03
            2538            3126     7.75253E-03     8.99488E-03
            2538            3143     14.7491E-03     15.1385E-03
            2538            3144     13.7222E-03     14.0367E-03
            2539            3126     7.75253E-03     8.99488E-03
            2539            3127     7.45944E-03     8.50286E-03
            2539            3144     13.7222E-03     14.0367E-03
            2539            3145     12.7981E-03     13.0601E-03
            2540            3127     7.45944E-03     8.50286E-03
            2540            3128     7.22520E-03     8.07504E-03
            2540            3145     12.7981E-03     13.0601E-03
            2540            3146     11.9943E-03     12.2191E-03
            2541            3128     7.22520E-03     8.07504E-03
            2541            3129     6.99986E-03     7.83684E-03
            2541            3146     11.9943E-03     12.2191E-03
            2541            3147     11.2924E-03     11.7382E-03
            2542            3129     6.99986E-03     7.83684E-03
            2542            3130     6.92243E-03     7.70752E-03
            2542            3147     11.2924E-03     11.7382E-03
            2542            3148     10.2403E-03     11.8942E-03
            2543             447     9.52342E-03     12.1255E-03
            2543             448     6.95681E-03     7.62027E-03
            2543            3130     6.92243E-03     7.70752E-03
            2543            3148     10.2403E-03     11.8942E-03
            2544             664     38.9151E-03     37.1774E-03
            2544             665     29.8224E-03     30.1202E-03
            2544            3131     28.4530E-03     28.6007E-03
            2544            3149     40.5113E-03     38.7718E-03
            2545            3131     28.4530E-03     28.6007E-03
            2545            3132     27.3083E-03     27.5773E-03
            2545            3149     40.5113E-03     38.7718E-03
            2545            3150     40.5970E-03     38.9682E-03
            2546            3132     27.3083E-03     27.5773E-03
            2546            3133     26.3763E-03     26.7105E-03
            2546            3150     40.5970E-03     38.9682E-03
            2546            3151     39.8962E-03     38.4096E-03
            2547            3133     26.3763E-03     26.7105E-03
            2547            3134     25.4082E-03     25.8248E-03
            2547            3151     39.8962E-03     38.4096E-03
            2547            3152     38.6587E-03     37.2998E-03
            2548            3134     25.4082E-03     25.8248E-03
            2548            3135     24.3742E-03     24.8423E-03
            2548            3152     38.6587E-03     37.2998E-03
            2548            3153     37.0805E-03     35.8262E-03
            2549            3135     24.3742E-03     24.8423E-03
            2549            3136     23.2594E-03     23.7587E-03
            2549            3153     37.0805E-03     35.8262E-03
            2549            3154     35.2744E-03     34.1155E-03
            2550            3136     23.2594E-03     23.7587E-03
            2550            3137     22.0656E-03     22.5855E-03
            2550            3154     35.2744E-03     34.1155E-03
            2550            3155     33.3342E-03     32.2443E-03
            2551            3137     22.0656E-03     22.5855E-03
            2551            3138     20.8320E-03     21.3566E-03
            2551            3155     33.3342E-03     32.2443E-03
            2551            3156     31.3073E-03     30.2847E-03
            2552            3138     20.8320E-03     21.3566E-03
            2552            3139     19.5666E-03     20.0875E-03
            2552            3156     31.3073E-03     30.2847E-03
            2552            3157     29.2467E-03     28.2761E-03
            2553            3139     19.5666E-03     20.0875E-03
            2553            3140     18.3094E-03     18.8145E-03
            2553            3157     29.2467E-03     28.2761E-03
            2553            3158     27.1764E-03     26.2595E-03
            2554            3140     18.3094E-03     18.8145E-03
            2554            3141     17.0669E-03     17.5473E-03
            2554            3158     27.1764E-03     26.2595E-03
            2554            3159     25.1329E-03     24.2646E-03
            2555            3141     17.0669E-03     17.5473E-03
            2555            3142     15.8787E-03     16.3170E-03
            2555            3159     25.1329E-03     24.2646E-03
            2555            3160     23.1361E-03     22.3242E-03
            2556            3142     15.8787E-03     16.3170E-03
            2556            3143     14.7491E-03     15.1385E-03
            2556            3160     23.1361E-03     22.3242E-03
            2556            3161     21.2243E-03     20.4743E-03
            2557            3143     14.7491E-03     15.1385E-03
            2557            3144     13.7222E-03     14.0367E-03
            2557            3161     21.2243E-03     20.4743E-03
            2557            3162     19.4166E-03     18.7615E-03
            2558            3144     13.7222E-03     14.0367E-03
            2558            3145     12.7981E-03     13.0601E-03
            2558            3162     19.4166E-03     18.7615E-03
            2558            3163     17.7602E-03     17.2570E-03
            2559            3145     12.7981E-03     13.0601E-03
            2559            3146     11.9943E-03     12.2191E-03
            2559            3163     17.7602E-03     17.2570E-03
            2559            3164     16.2455E-03     16.0541E-03
            2560            3146     11.9943E-03     12.2191E-03
            2560            3147     11.2924E-03     11.7382E-03
            2560            3164     16.2455E-03     16.0541E-03
            2560            3165     14.8383E-03     15.4533E-03
            2561            3147     11.2924E-03     11.7382E-03
            2561            3148     10.2403E-03     11.8942E-03
            2561            3165     14.8383E-03     15.4533E-03
            2561            3166     13.7557E-03     15.6224E-03
            2562             446     13.3424E-03     15.8807E-03
            2562             447     9.52342E-03     12.1255E-03
            2562            3148     10.2403E-03     11.8942E-03
            2562            3166     13.7557E-03     15.6224E-03
            2563             663     41.5015E-03     41.5760E-03
            2563             664     38.9151E-03     37.1774E-03
            2563            3149     40.5113E-03     38.7718E-03
            2563            3167     42.9173E-03     42.5553E-03
            2564            3149     40.5113E-03     38.7718E-03
            2564            3150     40.5970E-03     38.9682E-03
            2564            3167     42.9173E-03     42.5553E-03
            2564            3168     42.7773E-03     42.2198E-03
            2565            3150     40.5970E-03     38.9682E-03
            2565            3151     39.8962E-03     38.4096E-03
            2565            3168     42.7773E-03     42.2198E-03
            2565            3169     41.7450E-03     41.0884E-03
            2566            3151     39.8962E-03     38.4096E-03
            2566            3152     38.6587E-03     37.2998E-03
            2566            3169     41.7450E-03     41.0884E-03
            2566            3170     40.1141E-03     39.4329E-03
            2567            3152     38.6587E-03     37.2998E-03
            2567            3153     37.0805E-03     35.8262E-03
            2567            3170     40.1141E-03     39.4329E-03
            2567            3171     38.1374E-03     37.4711E-03
            2568            3153     37.0805E-03     35.8262E-03
            2568            3154     35.2744E-03     34.1155E-03
            2568            3171     38.1374E-03     37.4711E-03
            2568            3172     35.9731E-03     35.3235E-03
            2569            3154     35.2744E-03     34.1155E-03
            2569            3155     33.3342E-03     32.2443E-03
            2569            3172     35.9731E-03     35.3235E-03
            2569            3173     33.7029E-03     33.0857E-03
            2570            3155     33.3342E-03     32.2443E-03
            2570            3156     31.3073E-03     30.2847E-03
            2570            3173     33.7029E-03     33.0857E-03
            2570            3174     31.3998E-03     30.8059E-03
            2571            3156     31.3073E-03     30.2847E-03
            2571            3157     29.2467E-03     28.2761E-03
            2571            3174     31.3998E-03     30.8059E-03
            2571            3175     29.0889E-03     28.5235E-03
            2572            3157     29.2467E-03     28.2761E-03
            2572            3158     27.1764E-03     26.2595E-03
            2572            3175     29.0889E-03     28.5235E-03
            2572            3176     26.8040E-03     26.2632E-03
            2573            3158     27.1764E-03     26.2595E-03
            2573            3159     25.1329E-03     24.2646E-03
            2573            3176     26.8040E-03     26.2632E-03
            2573            3177     24.5596E-03     24.0482E-03
            2574            3159     25.1329E-03     24.2646E-03
            2574            3160     23.1361E-03     22.3242E-03
            2574            3177     24.5596E-03     24.0482E-03
            2574            3178     22.3777E-03     21.9056E-03
            2575            3160     23.1361E-03     22.3242E-03
            2575            3161     21.2243E-03     20.4743E-03
            2575            3178     22.3777E-03     21.9056E-03
            2575            3179     20.2783E-03     19.8666E-03
            2576            3161     21.2243E-03     20.4743E-03
            2576            3162     19.4166E-03     18.7615E-03
            2576            3179     20.2783E-03     19.8666E-03
            2576            3180     18.2807E-03     17.9891E-03
            2577            3162     19.4166E-03     18.7615E-03
            2577            3163     17.7602E-03     17.2570E-03
            2577            3180     18.2807E-03     17.9891E-03
            2577            3181     16.4221E-03     16.3397E-03
            2578            3163     17.7602E-03     17.2570E-03
            2578            3164     16.2455E-03     16.0541E-03
            2578            3181     16.4221E-03     16.3397E-03
            2578            3182     14.6986E-03     15.0738E-03
            2579            3164     16.2455E-03     16.0541E-03
            2579            3165     14.8383E-03     15.4533E-03
            2579            3182     14.6986E-03     15.0738E-03
            2579            3183     13.3104E-03     14.3135E-03
            2580            3165     14.8383E-03     15.4533E-03
            2580            3166     13.7557E-03     15.6224E-03
            2580            3183     13.3104E-03     14.3135E-03
            2580            3184     12.8441E-03     13.5670E-03
            2581             445     12.9280E-03     13.0761E-03
            2581             446     13.3424E-03     15.8807E-03
            2581            3166     13.7557E-03     15.6224E-03
            2581            3184     12.8441E-03     13.5670E-03
            2582             662     45.1438E-03     45.8475E-03
            2582             663     41.5015E-03     41.5760E-03
            2582            3167     42.9173E-03     42.5553E-03
            2582            3185     45.0914E-03     45.6869E-03
            2583            3167     42.9173E-03     42.5553E-03
            2583            3168     42.7773E-03     42.2198E-03
            2583            3185     45.0914E-03     45.6869E-03
            2583            3186     44.5516E-03     44.8367E-03
            2584            3168     42.7773E-03     42.2198E-03
            2584            3169     41.7450E-03     41.0884E-03
            2584            3186     44.5516E-03     44.8367E-03
            2584            3187     43.1052E-03     43.2060E-03
            2585            3169     41.7450E-03     41.0884E-03
            2585            3170     40.1141E-03     39.4329E-03
            2585            3187     43.1052E-03     43.2060E-03
            2585            3188     41.1402E-03     41.1288E-03
            2586            3170     40.1141E-03     39.4329E-03
            2586            3171     38.1374E-03     37.4711E-03
            2586            3188     41.1402E-03     41.1288E-03
            2586            3189     38.8591E-03     38.7772E-03
            2587            3171     38.1374E-03     37.4711E-03
            2587            3172     35.9731E-03     35.3235E-03
            2587            3189     38.8591E-03     38.7772E-03
            2587            3190     36.4117E-03     36.3049E-03
            2588            3172     35.9731E-03     35.3235E-03
            2588            3173     33.7029E-03     33.0857E-03
            2588            3190     36.4117E-03     36.3049E-03
            2588            3191     33.9093E-03     33.7836E-03
            2589            3173     33.7029E-03     33.0857E-03
            2589            3174     31.3998E-03     30.8059E-03
            2589            3191     33.9093E-03     33.7836E-03
            2589            3192     31.3885E-03     31.2606E-03
            2590            3174     31.3998E-03     30.8059E-03
            2590            3175     29.0889E-03     28.5235E-03
            2590            3192     31.3885E-03     31.2606E-03
            2590            3193     28.8914E-03     28.7626E-03
            2591            3175     29.0889E-03     28.5235E-03
            2591            3176     26.8040E-03     26.2632E-03
            2591            3193     28.8914E-03     28.7626E-03
            2591            3194     26.4297E-03     26.3068E-03
            2592            3176     26.8040E-03     26.2632E-03
            2592            3177     24.5596E-03     24.0482E-03
            2592            3194     26.4297E-03     26.3068E-03
            2592            3195     24.0204E-03     23.9106E-03
            2593            3177     24.5596E-03     24.0482E-03
            2593            3178     22.3777E-03     21.9056E-03
            2593            3195     24.0204E-03     23.9106E-03
            2593            3196     21.6767E-03     21.5924E-03
            2594            3178     22.3777E-03     21.9056E-03
            2594            3179     20.2783E-03     19.8666E-03
            2594            3196     21.6767E-03     21.5924E-03
            2594            3197     19.4109E-03     19.3840E-03
            2595            3179     20.2783E-03     19.8666E-03
            2595            3180     18.2807E-03     17.9891E-03
            2595            3197     19.4109E-03     19.3840E-03
            2595            3198     17.2546E-03     17.3302E-03
            2596            3180     18.2807E-03     17.9891E-03
            2596            3181     16.4221E-03     16.3397E-03
            2596            3198     17.2546E-03     17.3302E-03
            2596            3199     15.2319E-03     15.4986E-03
            2597            3181     16.4221E-03     16.3397E-03
            2597            3182     14.6986E-03     15.0738E-03
            2597            3199     15.2319E-03     15.4986E-03
            2597            3200     13.4565E-03     13.9915E-03
            2598            3182     14.6986E-03     15.0738E-03
            2598            3183     13.3104E-03     14.3135E-03
            2598            3200     13.4565E-03     13.9915E-03
            2598            3201     12.2248E-03     12.6509E-03
            2599            3183     13.3104E-03     14.3135E-03
            2599            3184     12.8441E-03     13.5670E-03
            2599            3201     12.2248E-03     12.6509E-03
            2599            3202     11.5475E-03     11.4075E-03
            2600             444     11.3082E-03     10.8465E-03
            2600             445     12.9280E-03     13.0761E-03
            2600            3184     12.8441E-03     13.5670E-03
            2600            3202     11.5475E-03     11.4075E-03
            2601             661     48.9812E-03     49.9006E-03
            2601             662     45.1438E-03     45.8475E-03
            2601            3185     45.0914E-03     45.6869E-03
            2601            3203     47.5138E-03     48.4963E-03
            2602            3185     45.0914E-03     45.6869E-03
            2602            3186     44.5516E-03     44.8367E-03
            2602            3203     47.5138E-03     48.4963E-03
            2602            3204     45.9756E-03     46.8548E-03
            2603            3186     44.5516E-03     44.8367E-03
            2603            3187     43.1052E-03     43.2060E-03
            2603            3204     45.9756E-03     46.8548E-03
            2603            3205     44.0276E-03     44.7348E-03
            2604            3187     43.1052E-03     43.2060E-03
            2604            3188     41.1402E-03     41.1288E-03
            2604            3205     44.0276E-03     44.7348E-03
            2604            3206     41.6916E-03     42.2546E-03
            2605            3188     41.1402E-03     41.1288E-03
            2605            3189     38.8591E-03     38.7772E-03
            2605            3206     41.6916E-03     42.2546E-03
            2605            3207     39.1362E-03     39.6173E-03
            2606            3189     38.8591E-03     38.7772E-03
            2606            3190     36.4117E-03     36.3049E-03
            2606            3207     39.1362E-03     39.6173E-03
            2606            3208     36.5036E-03     36.9168E-03
            2607            3190     36.4117E-03     36.3049E-03
            2607            3191     33.9093E-03     33.7836E-03
            2607            3208     36.5036E-03     36.9168E-03
            2607            3209     33.8354E-03     34.2097E-03
            2608            3191     33.9093E-03     33.7836E-03
            2608            3192     31.3885E-03     31.2606E-03
            2608            3209     33.8354E-03     34.2097E-03
            2608            3210     31.1841E-03     31.5296E-03
            2609            3192     31.3885E-03     31.2606E-03
            2609            3193     28.8914E-03     28.7626E-03
            2609            3210     31.1841E-03     31.5296E-03
            2609            3211     28.5607E-03     28.8887E-03
            2610            3193     28.8914E-03     28.7626E-03
            2610            3194     26.4297E-03     26.3068E-03
            2610            3211     28.5607E-03     28.8887E-03
            2610            3212     25.9811E-03     26.2994E-03
            2611            3194     26.4297E-03     26.3068E-03
            2611            3195     24.0204E-03     23.9106E-03
            2611            3212     25.9811E-03     26.2994E-03
            2611            3213     23.4532E-03     23.7704E-03
            2612            3195     24.0204E-03     23.9106E-03
            2612            3196     21.6767E-03     21.5924E-03
            2612            3213     23.4532E-03     23.7704E-03
            2612            3214     20.9853E-03     21.3159E-03
            2613            3196     21.6767E-03     21.5924E-03
            2613            3197     19.4109E-03     19.3840E-03
            2613            3214     20.9853E-03     21.3159E-03
            2613            3215     18.5961E-03     18.9598E-03
            2614            3197     19.4109E-03     19.3840E-03
            2614            3198     17.2546E-03     17.3302E-03
            2614            3215     18.5961E-03     18.9598E-03
            2614            3216     16.3087E-03     16.7314E-03
            2615            3198     17.2546E-03     17.3302E-03
            2615            3199     15.2319E-03     15.4986E-03
            2615            3216     16.3087E-03     16.7314E-03
            2615            3217     14.1821E-03     14.6908E-03
            2616            3199     15.2319E-03     15.4986E-03
            2616            3200     13.4565E-03     13.9915E-03
            2616            3217     14.1821E-03     14.6908E-03
            2616            3218     12.3670E-03     12.8252E-03
            2617            3200     13.4565E-03     13.9915E-03
            2617            3201     12.2248E-03     12.6509E-03
            2617            3218     12.3670E-03     12.8252E-03
            2617            3219     10.9766E-03     11.1481E-03
            2618            3201     12.2248E-03     12.6509E-03
            2618            3202     11.5475E-03     11.4075E-03
            2618            3219     10.9766E-03     11.1481E-03
            2618            3220     10.1535E-03     9.96047E-03
            2619             443     9.91385E-03     9.54626E-03
            2619             444     11.3082E-03     10.8465E-03
            2619            3202     11.5475E-03     11.4075E-03
            2619            3220     10.1535E-03     9.96047E-03
            2620             660     52.6494E-03     53.6151E-03
            2620             661     48.9812E-03     49.9006E-03
            2620            3203     47.5138E-03     48.4963E-03
            2620            3221     49.8043E-03     51.0277E-03
            2621            3203     47.5138E-03     48.4963E-03
            2621            3204     45.9756E-03     46.8548E-03
            2621            3221     49.8043E-03     51.0277E-03
            2621            3222     47.1820E-03     48.4180E-03
            2622            3204     45.9756E-03     46.8548E-03
            2622            3205     44.0276E-03     44.7348E-03
            2622            3222     47.1820E-03     48.4180E-03
            2622            3223     44.5186E-03     45.6586E-03
            2623            3205     44.0276E-03     44.7348E-03
            2623            3206     41.6916E-03     42.2546E-03
            2623            3223     44.5186E-03     45.6586E-03
            2623            3224     41.7498E-03     42.8184E-03
            2624            3206     41.6916E-03     42.2546E-03
            2624            3207     39.1362E-03     39.6173E-03
            2624            3224     41.7498E-03     42.8184E-03
            2624            3225     38.9892E-03     39.9658E-03
            2625            3207     39.1362E-03     39.6173E-03
            2625            3208     36.5036E-03     36.9168E-03
            2625            3225     38.9892E-03     39.9658E-03
            2625            3226     36.2139E-03     37.1236E-03
            2626            3208     36.5036E-03     36.9168E-03
            2626            3209     33.8354E-03     34.2097E-03
            2626            3226     36.2139E-03     37.1236E-03
            2626            3227     33.4665E-03     34.3243E-03
            2627            3209     33.8354E-03     34.2097E-03
            2627            3210     31.1841E-03     31.5296E-03
            2627            3227     33.4665E-03     34.3243E-03
            2627            3228     30.7468E-03     31.5651E-03
            2628            3210     31.1841E-03     31.5296E-03
            2628            3211     28.5607E-03     28.8887E-03
            2628            3228     30.7468E-03     31.5651E-03
            2628            3229     28.0633E-03     28.8546E-03
            2629            3211     28.5607E-03     28.8887E-03
            2629            3212     25.9811E-03     26.2994E-03
            2629            3229     28.0633E-03     28.8546E-03
            2629            3230     25.4202E-03     26.1913E-03
            2630            3212     25.9811E-03     26.2994E-03
            2630            3213     23.4532E-03     23.7704E-03
            2630            3230     25.4202E-03     26.1913E-03
            2630            3231     22.8207E-03     23.5801E-03
            2631            3213     23.4532E-03     23.7704E-03
            2631            3214     20.9853E-03     21.3159E-03
            2631            3231     22.8207E-03     23.5801E-03
            2631            3232     20.2747E-03     21.0304E-03
            2632            3214     20.9853E-03     21.3159E-03
            2632            3215     18.5961E-03     18.9598E-03
            2632            3232     20.2747E-03     21.0304E-03
            2632            3233     17.7963E-03     18.5530E-03
            2633            3215     18.5961E-03     18.9598E-03
            2633            3216     16.3087E-03     16.7314E-03
            2633            3233     17.7963E-03     18.5530E-03
            2633            3234     15.4150E-03     16.1753E-03
            2634            3216     16.3087E-03     16.7314E-03
            2634            3217     14.1821E-03     14.6908E-03
            2634            3234     15.4150E-03     16.1753E-03
            2634            3235     13.2038E-03     13.9107E-03
            2635            3217     14.1821E-03     14.6908E-03
            2635            3218     12.3670E-03     12.8252E-03
            2635            3235     13.2038E-03     13.9107E-03
            2635            3236     11.2513E-03     11.7833E-03
            2636            3218     12.3670E-03     12.8252E-03
            2636            3219     10.9766E-03     11.1481E-03
            2636            3236     11.2513E-03     11.7833E-03
            2636            3237     9.71818E-03     9.93397E-03
            2637            3219     10.9766E-03     11.1481E-03
            2637            3220     10.1535E-03     9.96047E-03
            2637            3237     9.71818E-03     9.93397E-03
            2637            3238     8.80785E-03     8.46068E-03
            2638             442     8.52909E-03     7.81516E-03
            2638             443     9.91385E-03     9.54626E-03
            2638            3220     10.1535E-03     9.96047E-03
            2638            3238     8.80785E-03     8.46068E-03
            2639             659     55.9189E-03     57.1421E-03
            2639             660     52.6494E-03     53.6151E-03
            2639            3221     49.8043E-03     51.0277E-03
            2639            3239     51.7623E-03     53.1117E-03
            2640            3221     49.8043E-03     51.0277E-03
            2640            3222     47.1820E-03     48.4180E-03
            2640            3239     51.7623E-03     53.1117E-03
            2640            3240     47.9534E-03     49.3981E-03
            2641            3222     47.1820E-03     48.4180E-03
            2641            3223     44.5186E-03     45.6586E-03
            2641            3240     47.9534E-03     49.3981E-03
            2641            3241     44.4677E-03     46.0002E-03
            2642            3223     44.5186E-03     45.6586E-03
            2642            3224     41.7498E-03     42.8184E-03
            2642            3241     44.4677E-03     46.0002E-03
            2642            3242     41.3849E-03     42.8689E-03
            2643            3224     41.7498E-03     42.8184E-03
            2643            3225     38.9892E-03     39.9658E-03
            2643            3242     41.3849E-03     42.8689E-03
            2643            3243     38.4368E-03     39.8626E-03
            2644            3225     38.9892E-03     39.9658E-03
            2644            3226     36.2139E-03     37.1236E-03
            2644            3243     38.4368E-03     39.8626E-03
            2644            3244     35.6008E-03     36.9726E-03
            2645            3226     36.2139E-03     37.1236E-03
            2645            3227     33.4665E-03     34.3243E-03
            2645            3244     35.6008E-03     36.9726E-03
            2645            3245     32.8280E-03     34.1488E-03
            2646            3227     33.4665E-03     34.3243E-03
            2646            3228     30.7468E-03     31.5651E-03
            2646            3245     32.8280E-03     34.1488E-03
            2646            3246     30.0983E-03     31.3840E-03
            2647            3228     30.7468E-03     31.5651E-03
            2647            3229     28.0633E-03     28.8546E-03
            2647            3246     30.0983E-03     31.3840E-03
            2647            3247     27.4062E-03     28.6612E-03
            2648            3229     28.0633E-03     28.8546E-03
            2648            3230     25.4202E-03     26.1913E-03
            2648            3247     27.4062E-03     28.6612E-03
            2648            3248     24.7440E-03     25.9764E-03
            2649            3230     25.4202E-03     26.1913E-03
            2649            3231     22.8207E-03     23.5801E-03
            2649            3248     24.7440E-03     25.9764E-03
            2649            3249     22.1165E-03     23.3289E-03
            2650            3231     22.8207E-03     23.5801E-03
            2650            3232     20.2747E-03     21.0304E-03
            2650            3249     22.1165E-03     23.3289E-03
            2650            3250     19.5281E-03     20.7201E-03
            2651            3232     20.2747E-03     21.0304E-03
            2651            3233     17.7963E-03     18.5530E-03
            2651            3250     19.5281E-03     20.7201E-03
            2651            3251     16.9934E-03     18.1599E-03
            2652            3233     17.7963E-03     18.5530E-03
            2652            3234     15.4150E-03     16.1753E-03
            2652            3251     16.9934E-03     18.1599E-03
            2652            3252     14.5451E-03     15.6567E-03
            2653            3234     15.4150E-03     16.1753E-03
            2653            3235     13.2038E-03     13.9107E-03
            2653            3252     14.5451E-03     15.6567E-03
            2653            3253     12.2317E-03     13.2207E-03
            2654            3235     13.2038E-03     13.9107E-03
            2654            3236     11.2513E-03     11.7833E-03
            2654            3253     12.2317E-03     13.2207E-03
            2654            3254     10.1484E-03     10.9123E-03
            2655            3236     11.2513E-03     11.7833E-03
            2655            3237     9.71818E-03     9.93397E-03
            2655            3254     10.1484E-03     10.9123E-03
            2655            3255     8.45784E-03     8.79176E-03
            2656            3237     9.71818E-03     9.93397E-03
            2656            3238     8.80785E-03     8.46068E-03
            2656            3255     8.45784E-03     8.79176E-03
            2656            3256     7.36927E-03     7.13022E-03
            2657             441     7.00576E-03     6.48060E-03
            2657             442     8.52909E-03     7.81516E-03
            2657            3238     8.80785E-03     8.46068E-03
            2657            3256     7.36927E-03     7.13022E-03
            2658             658     58.9688E-03     60.0724E-03
            2658             659     55.9189E-03     57.1421E-03
            2658            3239     51.7623E-03     53.1117E-03
            2658            3257     52.9087E-03     54.3484E-03
            2659            3239     51.7623E-03     53.1117E-03
            2659            3240     47.9534E-03     49.3981E-03
            2659            3257     52.9087E-03     54.3484E-03
            2659            3258     47.8209E-03     49.6191E-03
            2660            3240     47.9534E-03     49.3981E-03
            2660            3241     44.4677E-03     46.0002E-03
            2660            3258     47.8209E-03     49.6191E-03
            2660            3259     43.9582E-03     45.8221E-03
            2661            3241     44.4677E-03     46.0002E-03
            2661            3242     41.3849E-03     42.8689E-03
            2661            3259     43.9582E-03     45.8221E-03
            2661            3260     40.6100E-03     42.4687E-03
            2662            3242     41.3849E-03     42.8689E-03
            2662            3243     38.4368E-03     39.8626E-03
            2662            3260     40.6100E-03     42.4687E-03
            2662            3261     37.5898E-03     39.4286E-03
            2663            3243     38.4368E-03     39.8626E-03
            2663            3244     35.6008E-03     36.9726E-03
            2663            3261     37.5898E-03     39.4286E-03
            2663            3262     34.7479E-03     36.5457E-03
            2664            3244     35.6008E-03     36.9726E-03
            2664            3245     32.8280E-03     34.1488E-03
            2664            3262     34.7479E-03     36.5457E-03
            2664            3263     31.9934E-03     33.7655E-03
            2665            3245     32.8280E-03     34.1488E-03
            2665            3246     30.0983E-03     31.3840E-03
            2665            3263     31.9934E-03     33.7655E-03
            2665            3264     29.2969E-03     31.0405E-03
            2666            3246     30.0983E-03     31.3840E-03
            2666            3247     27.4062E-03     28.6612E-03
            2666            3264     29.2969E-03     31.0405E-03
            2666            3265     26.6267E-03     28.3501E-03
            2667            3247     27.4062E-03     28.6612E-03
            2667            3248     24.7440E-03     25.9764E-03
            2667            3265     26.6267E-03     28.3501E-03
            2667            3266     23.9809E-03     25.6831E-03
            2668            3248     24.7440E-03     25.9764E-03
            2668            3249     22.1165E-03     23.3289E-03
            2668            3266     23.9809E-03     25.6831E-03
            2668            3267     21.3535E-03     23.0331E-03
            2669            3249     22.1165E-03     23.3289E-03
            2669            3250     19.5281E-03     20.7201E-03
            2669            3267     21.3535E-03     23.0331E-03
            2669            3268     18.7517E-03     20.4021E-03
            2670            3250     19.5281E-03     20.7201E-03
            2670            3251     16.9934E-03     18.1599E-03
            2670            3268     18.7517E-03     20.4021E-03
            2670            3269     16.1873E-03     17.7912E-03
            2671            3251     16.9934E-03     18.1599E-03
            2671            3252     14.5451E-03     15.6567E-03
            2671            3269     16.1873E-03     17.7912E-03
            2671            3270     13.6822E-03     15.2032E-03
            2672            3252     14.5451E-03     15.6567E-03
            2672            3253     12.2317E-03     13.2207E-03
            2672            3270     13.6822E-03     15.2032E-03
            2672            3271     11.2788E-03     12.6578E-03
            2673            3253     12.2317E-03     13.2207E-03
            2673            3254     10.1484E-03     10.9123E-03
            2673            3271     11.2788E-03     12.6578E-03
            2673            3272     9.06125E-03     10.1665E-03
            2674            3254     10.1484E-03     10.9123E-03
            2674            3255     8.45784E-03     8.79176E-03
            2674            3272     9.06125E-03     10.1665E-03
            2674            3273     7.17408E-03     7.83535E-03
            2675            3255     8.45784E-03     8.79176E-03
            2675            3256     7.36927E-03     7.13022E-03
            2675            3273     7.17408E-03     7.83535E-03
            2675            3274     5.92991E-03     5.87596E-03
            2676             440     5.52168E-03     5.01218E-03
            2676             441     7.00576E-03     6.48060E-03
            2676            3256     7.36927E-03     7.13022E-03
            2676            3274     5.92991E-03     5.87596E-03
            2677             657     60.4366E-03     61.7232E-03
            2677             658     58.9688E-03     60.0724E-03
            2677            3257     52.9087E-03     54.3484E-03
            2677            3275     52.3256E-03     54.3197E-03
            2678            3257     52.9087E-03     54.3484E-03
            2678            3258     47.8209E-03     49.6191E-03
            2678            3275     52.3256E-03     54.3197E-03
            2678            3276     47.0642E-03     49.2124E-03
            2679            3258     47.8209E-03     49.6191E-03
            2679            3259     43.9582E-03     45.8221E-03
            2679            3276     47.0642E-03     49.2124E-03
            2679            3277     43.0006E-03     45.1810E-03
            2680            3259     43.9582E-03     45.8221E-03
            2680            3260     40.6100E-03     42.4687E-03
            2680            3277     43.0006E-03     45.1810E-03
            2680            3278     39.5925E-03     41.8065E-03
            2681            3260     40.6100E-03     42.4687E-03
            2681            3261     37.5898E-03     39.4286E-03
            2681            3278     39.5925E-03     41.8065E-03
            2681            3279     36.5866E-03     38.7955E-03
            2682            3261     37.5898E-03     39.4286E-03
            2682            3262     34.7479E-03     36.5457E-03
            2682            3279     36.5866E-03     38.7955E-03
            2682            3280     33.7678E-03     35.9824E-03
            2683            3262     34.7479E-03     36.5457E-03
            2683            3263     31.9934E-03     33.7655E-03
            2683            3280     33.7678E-03     35.9824E-03
            2683            3281     31.0675E-03     33.2762E-03
            2684            3263     31.9934E-03     33.7655E-03
            2684            3264     29.2969E-03     31.0405E-03
            2684            3281     31.0675E-03     33.2762E-03
            2684            3282     28.4126E-03     30.6188E-03
            2685            3264     29.2969E-03     31.0405E-03
            2685            3265     26.6267E-03     28.3501E-03
            2685            3282     28.4126E-03     30.6188E-03
            2685            3283     25.7875E-03     27.9859E-03
            2686            3265     26.6267E-03     28.3501E-03
            2686            3266     23.9809E-03     25.6831E-03
            2686            3283     25.7875E-03     27.9859E-03
            2686            3284     23.1716E-03     25.3585E-03
            2687            3266     23.9809E-03     25.6831E-03
            2687            3267     21.3535E-03     23.0331E-03
            2687            3284     23.1716E-03     25.3585E-03
            2687            3285     20.5656E-03     22.7339E-03
            2688            3267     21.3535E-03     23.0331E-03
            2688            3268     18.7517E-03     20.4021E-03
            2688            3285     20.5656E-03     22.7339E-03
            2688            3286     17.9697E-03     20.1068E-03
            2689            3268     18.7517E-03     20.4021E-03
            2689            3269     16.1873E-03     17.7912E-03
            2689            3286     17.9697E-03     20.1068E-03
            2689            3287     15.3936E-03     17.4780E-03
            2690            3269     16.1873E-03     17.7912E-03
            2690            3270     13.6822E-03     15.2032E-03
            2690            3287     15.3936E-03     17.4780E-03
            2690            3288     12.8509E-03     14.8513E-03
            2691            3270     13.6822E-03     15.2032E-03
            2691            3271     11.2788E-03     12.6578E-03
            2691            3288     12.8509E-03     14.8513E-03
            2691            3289     10.3723E-03     12.2255E-03
            2692            3271     11.2788E-03     12.6578E-03
            2692            3272     9.06125E-03     10.1665E-03
            2692            3289     10.3723E-03     12.2255E-03
            2692            3290     8.00907E-03     9.62480E-03
            2693            3272     9.06125E-03     10.1665E-03
            2693            3273     7.17408E-03     7.83535E-03
            2693            3290     8.00907E-03     9.62480E-03
            2693            3291     5.91522E-03     7.08154E-03
            2694            3273     7.17408E-03     7.83535E-03
            2694            3274     5.92991E-03     5.87596E-03
            2694            3291     5.91522E-03     7.08154E-03
            2694            3292     4.42135E-03     4.78480E-03
            2695             439     3.87930E-03     3.74714E-03
            2695             440     5.52168E-03     5.01218E-03
            2695            3274     5.92991E-03     5.87596E-03
            2695            3292     4.42135E-03     4.78480E-03
            2696             656     58.6265E-03     61.2696E-03
            2696             657     60.4366E-03     61.7232E-03
            2696            3275     52.3256E-03     54.3197E-03
            2696            3293     51.0007E-03     53.4848E-03
            2697            3275     52.3256E-03     54.3197E-03
            2697            3276     47.0642E-03     49.2124E-03
            2697            3293     51.0007E-03     53.4848E-03
            2697            3294     45.9509E-03     48.3787E-03
            2698            3276     47.0642E-03     49.2124E-03
            2698            3277     43.0006E-03     45.1810E-03
            2698            3294     45.9509E-03     48.3787E-03
            2698            3295     41.8959E-03     44.3654E-03
            2699            3277     43.0006E-03     45.1810E-03
            2699            3278     39.5925E-03     41.8065E-03
            2699            3295     41.8959E-03     44.3654E-03
            2699            3296     38.5647E-03     41.0840E-03
            2700            3278     39.5925E-03     41.8065E-03
            2700            3279     36.5866E-03     38.7955E-03
            2700            3296     38.5647E-03     41.0840E-03
            2700            3297     35.5686E-03     38.1457E-03
            2701            3279     36.5866E-03     38.7955E-03
            2701            3280     33.7678E-03     35.9824E-03
            2701            3297     35.5686E-03     38.1457E-03
            2701            3298     32.8015E-03     35.4238E-03
            2702            3280     33.7678E-03     35.9824E-03
            2702            3281     31.0675E-03     33.2762E-03
            2702            3298     32.8015E-03     35.4238E-03
            2702            3299     30.1353E-03     32.7909E-03
            2703            3281     31.0675E-03     33.2762E-03
            2703            3282     28.4126E-03     30.6188E-03
            2703            3299     30.1353E-03     32.7909E-03
            2703            3300     27.5307E-03     30.2086E-03
            2704            3282     28.4126E-03     30.6188E-03
            2704            3283     25.7875E-03     27.9859E-03
            2704            3300     27.5307E-03     30.2086E-03
            2704            3301     24.9460E-03     27.6347E-03
            2705            3283     25.7875E-03     27.9859E-03
            2705            3284     23.1716E-03     25.3585E-03
            2705            3301     24.9460E-03     27.6347E-03
            2705            3302     22.3706E-03     25.0616E-03
            2706            3284     23.1716E-03     25.3585E-03
            2706            3285     20.5656E-03     22.7339E-03
            2706            3302     22.3706E-03     25.0616E-03
            2706            3303     19.7953E-03     22.4760E-03
            2707            3285     20.5656E-03     22.7339E-03
            2707            3286     17.9697E-03     20.1068E-03
            2707            3303     19.7953E-03     22.4760E-03
            2707            3304     17.2213E-03     19.8773E-03
            2708            3286     17.9697E-03     20.1068E-03
            2708            3287     15.3936E-03     17.4780E-03
            2708            3304     17.2213E-03     19.8773E-03
            2708            3305     14.6516E-03     17.2619E-03
            2709            3287     15.3936E-03     17.4780E-03
            2709            3288     12.8509E-03     14.8513E-03
            2709            3305     14.6516E-03     17.2619E-03
            2709            3306     12.0972E-03     14.6282E-03
            2710            3288     12.8509E-03     14.8513E-03
            2710            3289     10.3723E-03     12.2255E-03
            2710            3306     12.0972E-03     14.6282E-03
            2710            3307     9.56697E-03     11.9775E-03
            2711            3289     10.3723E-03     12.2255E-03
            2711            3290     8.00907E-03     9.62480E-03
            2711            3307     9.56697E-03     11.9775E-03
            2711            3308     7.09445E-03     9.31320E-03
            2712            3290     8.00907E-03     9.62480E-03
            2712            3291     5.91522E-03     7.08154E-03
            2712            3308     7.09445E-03     9.31320E-03
            2712            3309     4.74806E-03     6.64551E-03
            2713            3291     5.91522E-03     7.08154E-03
            2713            3292     4.42135E-03     4.78480E-03
            2713            3309     4.74806E-03     6.64551E-03
            2713            3310     2.87577E-03     4.03948E-03
            2714             438     2.13214E-03     2.76204E-03
            2714             439     3.87930E-03     3.74714E-03
            2714            3292     4.42135E-03     4.78480E-03
            2714            3310     2.87577E-03     4.03948E-03
            2715             655     64.7368E-03     65.0212E-03
            2715             656     58.6265E-03     61.2696E-03
            2715            3293     51.0007E-03     53.4848E-03
            2715            3311     60.9345E-03     61.1090E-03
            2716            3293     51.0007E-03     53.4848E-03
            2716            3294     45.9509E-03     48.3787E-03
            2716            3311     60.9345E-03     61.1090E-03
            2716            3312     57.4519E-03     57.8317E-03
            2717            3294     45.9509E-03     48.3787E-03
            2717            3295     41.8959E-03     44.3654E-03
            2717            3312     57.4519E-03     57.8317E-03
            2717            3313     54.3249E-03     54.8737E-03
            2718            3295     41.8959E-03     44.3654E-03
            2718            3296     38.5647E-03     41.0840E-03
            2718            3313     54.3249E-03     54.8737E-03
            2718            3314     51.2463E-03     52.0256E-03
            2719            3296     38.5647E-03     41.0840E-03
            2719            3297     35.5686E-03     38.1457E-03
            2719            3314     51.2463E-03     52.0256E-03
            2719            3315     48.2318E-03     49.1601E-03
            2720            3297     35.5686E-03     38.1457E-03
            2720            3298     32.8015E-03     35.4238E-03
            2720            3315     48.2318E-03     49.1601E-03
            2720            3316     45.1925E-03     46.2702E-03
            2721            3298     32.8015E-03     35.4238E-03
            2721            3299     30.1353E-03     32.7909E-03
            2721            3316     45.1925E-03     46.2702E-03
            2721            3317     42.1426E-03     43.3127E-03
            2722            3299     30.1353E-03     32.7909E-03
            2722            3300     27.5307E-03     30.2086E-03
            2722            3317     42.1426E-03     43.3127E-03
            2722            3318     39.0594E-03     40.3119E-03
            2723            3300     27.5307E-03     30.2086E-03
            2723            3301     24.9460E-03     27.6347E-03
            2723            3318     39.0594E-03     40.3119E-03
            2723            3319     35.9615E-03     37.2638E-03
            2724            3301     24.9460E-03     27.6347E-03
            2724            3302     22.3706E-03     25.0616E-03
            2724            3319     35.9615E-03     37.2638E-03
            2724            3320     32.8514E-03     34.1919E-03
            2725            3302     22.3706E-03     25.0616E-03
            2725            3303     19.7953E-03     22.4760E-03
            2725            3320     32.8514E-03     34.1919E-03
            2725            3321     29.7520E-03     31.1089E-03
            2726            3303     19.7953E-03     22.4760E-03
            2726            3304     17.2213E-03     19.8773E-03
            2726            3321     29.7520E-03     31.1089E-03
            2726            3322     26.6814E-03     28.0361E-03
            2727            3304     17.2213E-03     19.8773E-03
            2727            3305     14.6516E-03     17.2619E-03
            2727            3322     26.6814E-03     28.0361E-03
            2727            3323     23.6711E-03     24.9986E-03
            2728            3305     14.6516E-03     17.2619E-03
            2728            3306     12.0972E-03     14.6282E-03
            2728            3323     23.6711E-03     24.9986E-03
            2728            3324     20.7551E-03     22.0221E-03
            2729            3306     12.0972E-03     14.6282E-03
            2729            3307     9.56697E-03     11.9775E-03
            2729            3324     20.7551E-03     22.0221E-03
            2729            3325     17.9803E-03     19.1713E-03
            2730            3307     9.56697E-03     11.9775E-03
            2730            3308     7.09445E-03     9.31320E-03
            2730            3325     17.9803E-03     19.1713E-03
            2730            3326     15.3824E-03     16.4779E-03
            2731            3308     7.09445E-03     9.31320E-03
            2731            3309     4.74806E-03     6.64551E-03
            2731            3326     15.3824E-03     16.4779E-03
            2731            3327     13.0012E-03     14.2138E-03
            2732            3309     4.74806E-03     6.64551E-03
            2732            3310     2.87577E-03     4.03948E-03
            2732            3327     13.0012E-03     14.2138E-03
            2732            3328     10.5596E-03     12.7276E-03
            2733             437     9.25673E-03     12.2047E-03
            2733             438     2.13214E-03     2.76204E-03
            2733            3310     2.87577E-03     4.03948E-03
            2733            3328     10.5596E-03     12.7276E-03
            2734             654     74.3846E-03     73.0515E-03
            2734             655     64.7368E-03     65.0212E-03
            2734            3311     60.9345E-03     61.1090E-03
            2734            3329     73.4279E-03     72.1142E-03
            2735            3311     60.9345E-03     61.1090E-03
            2735            3312     57.4519E-03     57.8317E-03
            2735            3329     73.4279E-03     72.1142E-03
            2735            3330     71.4333E-03     70.2917E-03
            2736            3312     57.4519E-03     57.8317E-03
            2736            3313     54.3249E-03     54.8737E-03
            2736            3330     71.4333E-03     70.2917E-03
            2736            3331     68.8215E-03     67.8704E-03
            2737            3313     54.3249E-03     54.8737E-03
            2737            3314     51.2463E-03     52.0256E-03
            2737            3331     68.8215E-03     67.8704E-03
            2737            3332     65.7671E-03     65.0081E-03
            2738            3314     51.2463E-03     52.0256E-03
            2738            3315     48.2318E-03     49.1601E-03
            2738            3332     65.7671E-03     65.0081E-03
            2738            3333     62.4150E-03     61.8257E-03
            2739            3315     48.2318E-03     49.1601E-03
            2739            3316     45.1925E-03     46.2702E-03
            2739            3333     62.4150E-03     61.8257E-03
            2739            3334     58.8523E-03     58.3990E-03
            2740            3316     45.1925E-03     46.2702E-03
            2740            3317     42.1426E-03     43.3127E-03
            2740            3334     58.8523E-03     58.3990E-03
            2740            3335     55.1470E-03     54.8112E-03
            2741            3317     42.1426E-03     43.3127E-03
            2741            3318     39.0594E-03     40.3119E-03
            2741            3335     55.1470E-03     54.8112E-03
            2741            3336     51.3566E-03     51.1054E-03
            2742            3318     39.0594E-03     40.3119E-03
            2742            3319     35.9615E-03     37.2638E-03
            2742            3336     51.3566E-03     51.1054E-03
            2742            3337     47.5174E-03     47.3366E-03
            2743            3319     35.9615E-03     37.2638E-03
            2743            3320     32.8514E-03     34.1919E-03
            2743            3337     47.5174E-03     47.3366E-03
            2743            3338     43.6719E-03     43.5380E-03
            2744            3320     32.8514E-03     34.1919E-03
            2744            3321     29.7520E-03     31.1089E-03
            2744            3338     43.6719E-03     43.5380E-03
            2744            3339     39.8526E-03     39.7502E-03
            2745            3321     29.7520E-03     31.1089E-03
            2745            3322     26.6814E-03     28.0361E-03
            2745            3339     39.8526E-03     39.7502E-03
            2745            3340     36.0987E-03     36.0119E-03
            2746            3322     26.6814E-03     28.0361E-03
            2746            3323     23.6711E-03     24.9986E-03
            2746            3340     36.0987E-03     36.0119E-03
            2746            3341     32.4609E-03     32.3728E-03
            2747            3323     23.6711E-03     24.9986E-03
            2747            3324     20.7551E-03     22.0221E-03
            2747            3341     32.4609E-03     32.3728E-03
            2747            3342     28.9842E-03     28.9020E-03
            2748            3324     20.7551E-03     22.0221E-03
            2748            3325     17.9803E-03     19.1713E-03
            2748            3342     28.9842E-03     28.9020E-03
            2748            3343     25.7544E-03     25.7161E-03
            2749            3325     17.9803E-03     19.1713E-03
            2749            3326     15.3824E-03     16.4779E-03
            2749            3343     25.7544E-03     25.7161E-03
            2749            3344     22.8017E-03     22.9892E-03
            2750            3326     15.3824E-03     16.4779E-03
            2750            3327     13.0012E-03     14.2138E-03
            2750            3344     22.8017E-03     22.9892E-03
            2750            3345     20.1424E-03     21.2203E-03
            2751            3327     13.0012E-03     14.2138E-03
            2751            3328     10.5596E-03     12.7276E-03
            2751            3345     20.1424E-03     21.2203E-03
            2751            3346     18.1189E-03     20.8634E-03
            2752             436     17.3340E-03     21.0513E-03
            2752             437     9.25673E-03     12.2047E-03
            2752            3328     10.5596E-03     12.7276E-03
            2752            3346     18.1189E-03     20.8634E-03
            2753             653     78.4322E-03     78.9735E-03
            2753             654     74.3846E-03     73.0515E-03
            2753            3329     73.4279E-03     72.1142E-03
            2753            3347     77.1046E-03     77.4223E-03
            2754            3329     73.4279E-03     72.1142E-03
            2754            3330     71.4333E-03     70.2917E-03
            2754            3347     77.1046E-03     77.4223E-03
            2754            3348     74.7803E-03     74.8875E-03
            2755            3330     71.4333E-03     70.2917E-03
            2755            3331     68.8215E-03     67.8704E-03
            2755            3348     74.7803E-03     74.8875E-03
            2755            3349     71.7235E-03     71.7410E-03
            2756            3331     68.8215E-03     67.8704E-03
            2756            3332     65.7671E-03     65.0081E-03
            2756            3349     71.7235E-03     71.7410E-03
            2756            3350     68.1926E-03     68.1937E-03
            2757            3332     65.7671E-03     65.0081E-03
            2757            3333     62.4150E-03     61.8257E-03
            2757            3350     68.1926E-03     68.1937E-03
            2757            3351     64.3536E-03     64.3638E-03
            2758            3333     62.4150E-03     61.8257E-03
            2758            3334     58.8523E-03     58.3990E-03
            2758            3351     64.3536E-03     64.3638E-03
            2758            3352     60.3212E-03     60.3712E-03
            2759            3334     58.8523E-03     58.3990E-03
            2759            3335     55.1470E-03     54.8112E-03
            2759            3352     60.3212E-03     60.3712E-03
            2759            3353     56.1872E-03     56.2668E-03
            2760            3335     55.1470E-03     54.8112E-03
            2760            3336     51.3566E-03     51.1054E-03
            2760            3353     56.1872E-03     56.2668E-03
            2760            3354     51.9943E-03     52.1134E-03
            2761            3336     51.3566E-03     51.1054E-03
            2761            3337     47.5174E-03     47.3366E-03
            2761            3354     51.9943E-03     52.1134E-03
            2761            3355     47.7935E-03     47.9371E-03
            2762            3337     47.5174E-03     47.3366E-03
            2762            3338     43.6719E-03     43.5380E-03
            2762            3355     47.7935E-03     47.9371E-03
            2762            3356     43.6035E-03     43.7728E-03
            2763            3338     43.6719E-03     43.5380E-03
            2763            3339     39.8526E-03     39.7502E-03
            2763            3356     43.6035E-03     43.7728E-03
            2763            3357     39.4583E-03     39.6436E-03
            2764            3339     39.8526E-03     39.7502E-03
            2764            3340     36.0987E-03     36.0119E-03
            2764            3357     39.4583E-03     39.6436E-03
            2764            3358     35.3767E-03     35.5843E-03
            2765            3340     36.0987E-03     36.0119E-03
            2765            3341     32.4609E-03     32.3728E-03
            2765            3358     35.3767E-03     35.5843E-03
            2765            3359     31.3958E-03     31.6366E-03
            2766            3341     32.4609E-03     32.3728E-03
            2766            3342     28.9842E-03     28.9020E-03
            2766            3359     31.3958E-03     31.6366E-03
            2766            3360     27.5456E-03     27.8783E-03
            2767            3342     28.9842E-03     28.9020E-03
            2767            3343     25.7544E-03     25.7161E-03
            2767            3360     27.5456E-03     27.8783E-03
            2767            3361     23.8914E-03     24.4222E-03
            2768            3343     25.7544E-03     25.7161E-03
            2768            3344     22.8017E-03     22.9892E-03
            2768            3361     23.8914E-03     24.4222E-03
            2768            3362     20.4661E-03     21.5194E-03
            2769            3344     22.8017E-03     22.9892E-03
            2769            3345     20.1424E-03     21.2203E-03
            2769            3362     20.4661E-03     21.5194E-03
            2769            3363     17.5789E-03     19.4967E-03
            2770            3345     20.1424E-03     21.2203E-03
            2770            3346     18.1189E-03     20.8634E-03
            2770            3363     17.5789E-03     19.4967E-03
            2770            3364     16.2198E-03     17.8227E-03
            2771             435     16.0863E-03     16.9071E-03
            2771             436     17.3340E-03     21.0513E-03
            2771            3346     18.1189E-03     20.8634E-03
            2771            3364     16.2198E-03     17.8227E-03
            2772             652     82.5847E-03     83.9449E-03
            2772             653     78.4322E-03     78.9735E-03
            2772            3347     77.1046E-03     77.4223E-03
            2772            3365     80.4040E-03     81.6500E-03
            2773            3347     77.1046E-03     77.4223E-03
            2773            3348     74.7803E-03     74.8875E-03
            2773            3365     80.4040E-03     81.6500E-03
            2773            3366     77.5507E-03     78.6089E-03
            2774            3348     74.7803E-03     74.8875E-03
            2774            3349     71.7235E-03     71.7410E-03
            2774            3366     77.5507E-03     78.6089E-03
            2774            3367     74.0709E-03     74.9144E-03
            2775            3349     71.7235E-03     71.7410E-03
            2775            3350     68.1926E-03     68.1937E-03
            2775            3367     74.0709E-03     74.9144E-03
            2775            3368     70.1154E-03     70.8179E-03
            2776            3350     68.1926E-03     68.1937E-03
            2776            3351     64.3536E-03     64.3638E-03
            2776            3368     70.1154E-03     70.8179E-03
            2776            3369     65.8734E-03     66.4957E-03
            2777            3351     64.3536E-03     64.3638E-03
            2777            3352     60.3212E-03     60.3712E-03
            2777            3369     65.8734E-03     66.4957E-03
            2777            3370     61.4790E-03     62.0405E-03
            2778            3352     60.3212E-03     60.3712E-03
            2778            3353     56.1872E-03     56.2668E-03
            2778            3370     61.4790E-03     62.0405E-03
            2778            3371     56.9984E-03     57.5387E-03
            2779            3353     56.1872E-03     56.2668E-03
            2779            3354     51.9943E-03     52.1134E-03
            2779            3371     56.9984E-03     57.5387E-03
            2779            3372     52.5028E-03     53.0228E-03
            2780            3354     51.9943E-03     52.1134E-03
            2780            3355     47.7935E-03     47.9371E-03
            2780            3372     52.5028E-03     53.0228E-03
            2780            3373     48.0080E-03     48.5266E-03
            2781            3355     47.7935E-03     47.9371E-03
            2781            3356     43.6035E-03     43.7728E-03
            2781            3373     48.0080E-03     48.5266E-03
            2781            3374     43.5487E-03     44.0659E-03
            2782            3356     43.6035E-03     43.7728E-03
            2782            3357     39.4583E-03     39.6436E-03
            2782            3374     43.5487E-03     44.0659E-03
            2782            3375     39.1297E-03     39.6615E-03
            2783            3357     39.4583E-03     39.6436E-03
            2783            3358     35.3767E-03     35.5843E-03
            2783            3375     39.1297E-03     39.6615E-03
            2783            3376     34.7766E-03     35.3362E-03
            2784            3358     35.3767E-03     35.5843E-03
            2784            3359     31.3958E-03     31.6366E-03
            2784            3376     34.7766E-03     35.3362E-03
            2784            3377     30.4977E-03     31.1266E-03
            2785            3359     31.3958E-03     31.6366E-03
            2785            3360     27.5456E-03     27.8783E-03
            2785            3377     30.4977E-03     31.1266E-03
            2785            3378     26.3335E-03     27.0983E-03
            2786            3360     27.5456E-03     27.8783E-03
            2786            3361     23.8914E-03     24.4222E-03
            2786            3378     26.3335E-03     27.0983E-03
            2786            3379     22.3233E-03     23.3460E-03
            2787            3361     23.8914E-03     24.4222E-03
            2787            3362     20.4661E-03     21.5194E-03
            2787            3379     22.3233E-03     23.3460E-03
            2787            3380     18.6178E-03     20.0700E-03
            2788            3362     20.4661E-03     21.5194E-03
            2788            3363     17.5789E-03     19.4967E-03
            2788            3380     18.6178E-03     20.0700E-03
            2788            3381     15.7243E-03     17.1669E-03
            2789            3363     17.5789E-03     19.4967E-03
            2789            3364     16.2198E-03     17.8227E-03
            2789            3381     15.7243E-03     17.1669E-03
            2789            3382     13.9668E-03     14.5793E-03
            2790             434     13.3656E-03     13.4129E-03
            2790             435     16.0863E-03     16.9071E-03
            2790            3364     16.2198E-03     17.8227E-03
            2790            3382     13.9668E-03     14.5793E-03
            2791             651     86.6030E-03     88.1434E-03
            2791             652     82.5847E-03     83.9449E-03
            2791            3365     80.4040E-03     81.6500E-03
            2791            3383     83.3492E-03     85.0935E-03
            2792            3365     80.4040E-03     81.6500E-03
            2792            3366     77.5507E-03     78.6089E-03
            2792            3383     83.3492E-03     85.0935E-03
            2792            3384     79.8319E-03     81.4451E-03
            2793            3366     77.5507E-03     78.6089E-03
            2793            3367     74.0709E-03     74.9144E-03
            2793            3384     79.8319E-03     81.4451E-03
            2793            3385     75.8030E-03     77.2614E-03
            2794            3367     74.0709E-03     74.9144E-03
            2794            3368     70.1154E-03     70.8179E-03
            2794            3385     75.8030E-03     77.2614E-03
            2794            3386     71.4327E-03     72.7264E-03
            2795            3368     70.1154E-03     70.8179E-03
            2795            3369     65.8734E-03     66.4957E-03
            2795            3386     71.4327E-03     72.7264E-03
            2795            3387     66.8550E-03     68.0062E-03
            2796            3369     65.8734E-03     66.4957E-03
            2796            3370     61.4790E-03     62.0405E-03
            2796            3387     66.8550E-03     68.0062E-03
            2796            3388     62.1624E-03     63.2225E-03
            2797            3370     61.4790E-03     62.0405E-03
            2797            3371     56.9984E-03     57.5387E-03
            2797            3388     62.1624E-03     63.2225E-03
            2797            3389     57.4480E-03     58.4300E-03
            2798            3371     56.9984E-03     57.5387E-03
            2798            3372     52.5028E-03     53.0228E-03
            2798            3389     57.4480E-03     58.4300E-03
            2798            3390     52.7271E-03     53.6644E-03
            2799            3372     52.5028E-03     53.0228E-03
            2799            3373     48.0080E-03     48.5266E-03
            2799            3390     52.7271E-03     53.6644E-03
            2799            3391     48.0384E-03     48.9418E-03
            2800            3373     48.0080E-03     48.5266E-03
            2800            3374     43.5487E-03     44.0659E-03
            2800            3391     48.0384E-03     48.9418E-03
            2800            3392     43.3806E-03     44.2728E-03
            2801            3374     43.5487E-03     44.0659E-03
            2801            3375     39.1297E-03     39.6615E-03
            2801            3392     43.3806E-03     44.2728E-03
            2801            3393     38.7714E-03     39.6686E-03
            2802            3375     39.1297E-03     39.6615E-03
            2802            3376     34.7766E-03     35.3362E-03
            2802            3393     38.7714E-03     39.6686E-03
            2802            3394     34.2093E-03     35.1427E-03
            2803            3376     34.7766E-03     35.3362E-03
            2803            3377     30.4977E-03     31.1266E-03
            2803            3394     34.2093E-03     35.1427E-03
            2803            3395     29.7128E-03     30.7258E-03
            2804            3377     30.4977E-03     31.1266E-03
            2804            3378     26.3335E-03     27.0983E-03
            2804            3395     29.7128E-03     30.7258E-03
            2804            3396     25.3020E-03     26.4487E-03
            2805            3378     26.3335E-03     27.0983E-03
            2805            3379     22.3233E-03     23.3460E-03
            2805            3396     25.3020E-03     26.4487E-03
            2805            3397     21.0326E-03     22.4033E-03
            2806            3379     22.3233E-03     23.3460E-03
            2806            3380     18.6178E-03     20.0700E-03
            2806            3397     21.0326E-03     22.4033E-03
            2806            3398     17.1210E-03     18.6002E-03
            2807            3380     18.6178E-03     20.0700E-03
            2807            3381     15.7243E-03     17.1669E-03
            2807            3398     17.1210E-03     18.6002E-03
            2807            3399     13.8416E-03     15.0608E-03
            2808            3381     15.7243E-03     17.1669E-03
            2808            3382     13.9668E-03     14.5793E-03
            2808            3399     13.8416E-03     15.0608E-03
            2808            3400     11.6842E-03     12.3528E-03
            2809             433     10.9797E-03     11.3243E-03
            2809             434     13.3656E-03     13.4129E-03
            2809            3382     13.9668E-03     14.5793E-03
            2809            3400     11.6842E-03     12.3528E-03
            2810             650     90.1608E-03     91.8302E-03
            2810             651     86.6030E-03     88.1434E-03
            2810            3383     83.3492E-03     85.0935E-03
            2810            3401     86.0062E-03     87.8947E-03
            2811            3383     83.3492E-03     85.0935E-03
            2811            3384     79.8319E-03     81.4451E-03
            2811            3401     86.0062E-03     87.8947E-03
            2811            3402     81.5697E-03     83.5356E-03
            2812            3384     79.8319E-03     81.4451E-03
            2812            3385     75.8030E-03     77.2614E-03
            2812            3402     81.5697E-03     83.5356E-03
            2812            3403     76.9302E-03     78.8030E-03
            2813            3385     75.8030E-03     77.2614E-03
            2813            3386     71.4327E-03     72.7264E-03
            2813            3403     76.9302E-03     78.8030E-03
            2813            3404     72.1220E-03     73.8509E-03
            2814            3386     71.4327E-03     72.7264E-03
            2814            3387     66.8550E-03     68.0062E-03
            2814            3404     72.1220E-03     73.8509E-03
            2814            3405     67.2233E-03     68.8320E-03
            2815            3387     66.8550E-03     68.0062E-03
            2815            3388     62.1624E-03     63.2225E-03
            2815            3405     67.2233E-03     68.8320E-03
            2815            3406     62.3362E-03     63.8240E-03
            2816            3388     62.1624E-03     63.2225E-03
            2816            3389     57.4480E-03     58.4300E-03
            2816            3406     62.3362E-03     63.8240E-03
            2816            3407     57.4542E-03     58.8550E-03
            2817            3389     57.4480E-03     58.4300E-03
            2817            3390     52.7271E-03     53.6644E-03
            2817            3407     57.4542E-03     58.8550E-03
            2817            3408     52.6143E-03     53.9458E-03
            2818            3390     52.7271E-03     53.6644E-03
            2818            3391     48.0384E-03     48.9418E-03
            2818            3408     52.6143E-03     53.9458E-03
            2818            3409     47.8068E-03     49.0941E-03
            2819            3391     48.0384E-03     48.9418E-03
            2819            3392     43.3806E-03     44.2728E-03
            2819            3409     47.8068E-03     49.0941E-03
            2819            3410     43.0420E-03     44.3048E-03
            2820            3392     43.3806E-03     44.2728E-03
            2820            3393     38.7714E-03     39.6686E-03
            2820            3410     43.0420E-03     44.3048E-03
            2820            3411     38.3135E-03     39.5768E-03
            2821            3393     38.7714E-03     39.6686E-03
            2821            3394     34.2093E-03     35.1427E-03
            2821            3411     38.3135E-03     39.5768E-03
            2821            3412     33.6265E-03     34.9203E-03
            2822            3394     34.2093E-03     35.1427E-03
            2822            3395     29.7128E-03     30.7258E-03
            2822            3412     33.6265E-03     34.9203E-03
            2822            3413     28.9846E-03     30.3442E-03
            2823            3395     29.7128E-03     30.7258E-03
            2823            3396     25.3020E-03     26.4487E-03
            2823            3413     28.9846E-03     30.3442E-03
            2823            3414     24.4042E-03     25.8812E-03
            2824            3396     25.3020E-03     26.4487E-03
            2824            3397     21.0326E-03     22.4033E-03
            2824            3414     24.4042E-03     25.8812E-03
            2824            3415     19.9598E-03     21.5405E-03
            2825            3397     21.0326E-03     22.4033E-03
            2825            3398     17.1210E-03     18.6002E-03
            2825            3415     19.9598E-03     21.5405E-03
            2825            3416     15.7562E-03     17.3385E-03
            2826            3398     17.1210E-03     18.6002E-03
            2826            3399     13.8416E-03     15.0608E-03
            2826            3416     15.7562E-03     17.3385E-03
            2826            3417     12.0827E-03     13.4675E-03
            2827            3399     13.8416E-03     15.0608E-03
            2827            3400     11.6842E-03     12.3528E-03
            2827            3417     12.0827E-03     13.4675E-03
            2827            3418     9.57674E-03     10.1345E-03
            2828             432     8.71495E-03     8.61669E-03
            2828             433     10.9797E-03     11.3243E-03
            2828            3400     11.6842E-03     12.3528E-03
            2828            3418     9.57674E-03     10.1345E-03
            2829             649     93.4573E-03     95.1403E-03
            2829             650     90.1608E-03     91.8302E-03
            2829            3401     86.0062E-03     87.8947E-03
            2829            3419     88.0985E-03     90.1538E-03
            2830            3401     86.0062E-03     87.8947E-03
            2830            3402     81.5697E-03     83.5356E-03
            2830            3419     88.0985E-03     90.1538E-03
            2830            3420     82.7460E-03     84.9059E-03
            2831            3402     81.5697E-03     83.5356E-03
            2831            3403     76.9302E-03     78.8030E-03
            2831            3420     82.7460E-03     84.9059E-03
            2831            3421     77.3998E-03     79.5258E-03
            2832            3403     76.9302E-03     78.8030E-03
            2832            3404     72.1220E-03     73.8509E-03
            2832            3421     77.3998E-03     79.5258E-03
            2832            3422     72.1210E-03     74.1963E-03
            2833            3404     72.1220E-03     73.8509E-03
            2833            3405     67.2233E-03     68.8320E-03
            2833            3422     72.1210E-03     74.1963E-03
            2833            3423     67.0114E-03     68.9721E-03
            2834            3405     67.2233E-03     68.8320E-03
            2834            3406     62.3362E-03     63.8240E-03
            2834            3423     67.0114E-03     68.9721E-03
            2834            3424     61.9780E-03     63.8370E-03
            2835            3406     62.3362E-03     63.8240E-03
            2835            3407     57.4542E-03     58.8550E-03
            2835            3424     61.9780E-03     63.8370E-03
            2835            3425     57.0349E-03     58.8053E-03
            2836            3407     57.4542E-03     58.8550E-03
            2836            3408     52.6143E-03     53.9458E-03
            2836            3425     57.0349E-03     58.8053E-03
            2836            3426     52.1474E-03     53.8470E-03
            2837            3408     52.6143E-03     53.9458E-03
            2837            3409     47.8068E-03     49.0941E-03
            2837            3426     52.1474E-03     53.8470E-03
            2837            3427     47.3094E-03     48.9609E-03
            2838            3409     47.8068E-03     49.0941E-03
            2838            3410     43.0420E-03     44.3048E-03
            2838            3427     47.3094E-03     48.9609E-03
            2838            3428     42.5087E-03     44.1300E-03
            2839            3410     43.0420E-03     44.3048E-03
            2839            3411     38.3135E-03     39.5768E-03
            2839            3428     42.5087E-03     44.1300E-03
            2839            3429     37.7392E-03     39.3533E-03
            2840            3411     38.3135E-03     39.5768E-03
            2840            3412     33.6265E-03     34.9203E-03
            2840            3429     37.7392E-03     39.3533E-03
            2840            3430     32.9982E-03     34.6277E-03
            2841            3412     33.6265E-03     34.9203E-03
            2841            3413     28.9846E-03     30.3442E-03
            2841            3430     32.9982E-03     34.6277E-03
            2841            3431     28.2849E-03     29.9585E-03
            2842            3413     28.9846E-03     30.3442E-03
            2842            3414     24.4042E-03     25.8812E-03
            2842            3431     28.2849E-03     29.9585E-03
            2842            3432     23.6151E-03     25.3551E-03
            2843            3414     24.4042E-03     25.8812E-03
            2843            3415     19.9598E-03     21.5405E-03
            2843            3432     23.6151E-03     25.3551E-03
            2843            3433     19.0178E-03     20.8178E-03
            2844            3415     19.9598E-03     21.5405E-03
            2844            3416     15.7562E-03     17.3385E-03
            2844            3433     19.0178E-03     20.8178E-03
            2844            3434     14.5831E-03     16.3817E-03
            2845            3416     15.7562E-03     17.3385E-03
            2845            3417     12.0827E-03     13.4675E-03
            2845            3434     14.5831E-03     16.3817E-03
            2845            3435     10.5157E-03     12.0925E-03
            2846            3417     12.0827E-03     13.4675E-03
            2846            3418     9.57674E-03     10.1345E-03
            2846            3435     10.5157E-03     12.0925E-03
            2846            3436     7.44042E-03     8.31724E-03
            2847             431     6.27435E-03     6.64692E-03
            2847             432     8.71495E-03     8.61669E-03
            2847            3418     9.57674E-03     10.1345E-03
            2847            3436     7.44042E-03     8.31724E-03
            2848             648     96.2012E-03     98.1656E-03
            2848             649     93.4573E-03     95.1403E-03
            2848            3419     88.0985E-03     90.1538E-03
            2848            3437     89.6142E-03     91.7296E-03
            2849            3419     88.0985E-03     90.1538E-03
            2849            3420     82.7460E-03     84.9059E-03
            2849            3437     89.6142E-03     91.7296E-03
            2849            3438     83.1369E-03     85.3716E-03
            2850            3420     82.7460E-03     84.9059E-03
            2850            3421     77.3998E-03     79.5258E-03
            2850            3438     83.1369E-03     85.3716E-03
            2850            3439     77.0308E-03     79.3937E-03
            2851            3421     77.3998E-03     79.5258E-03
            2851            3422     72.1210E-03     74.1963E-03
            2851            3439     77.0308E-03     79.3937E-03
            2851            3440     71.4946E-03     73.8082E-03
            2852            3422     72.1210E-03     74.1963E-03
            2852            3423     67.0114E-03     68.9721E-03
            2852            3440     71.4946E-03     73.8082E-03
            2852            3441     66.2221E-03     68.4650E-03
            2853            3423     67.0114E-03     68.9721E-03
            2853            3424     61.9780E-03     63.8370E-03
            2853            3441     66.2221E-03     68.4650E-03
            2853            3442     61.1648E-03     63.3331E-03
            2854            3424     61.9780E-03     63.8370E-03
            2854            3425     57.0349E-03     58.8053E-03
            2854            3442     61.1648E-03     63.3331E-03
            2854            3443     56.2310E-03     58.3236E-03
            2855            3425     57.0349E-03     58.8053E-03
            2855            3426     52.1474E-03     53.8470E-03
            2855            3443     56.2310E-03     58.3236E-03
            2855            3444     51.3761E-03     53.4158E-03
            2856            3426     52.1474E-03     53.8470E-03
            2856            3427     47.3094E-03     48.9609E-03
            2856            3444     51.3761E-03     53.4158E-03
            2856            3445     46.5750E-03     48.5691E-03
            2857            3427     47.3094E-03     48.9609E-03
            2857            3428     42.5087E-03     44.1300E-03
            2857            3445     46.5750E-03     48.5691E-03
            2857            3446     41.8047E-03     43.7721E-03
            2858            3428     42.5087E-03     44.1300E-03
            2858            3429     37.7392E-03     39.3533E-03
            2858            3446     41.8047E-03     43.7721E-03
            2858            3447     37.0595E-03     39.0100E-03
            2859            3429     37.7392E-03     39.3533E-03
            2859            3430     32.9982E-03     34.6277E-03
            2859            3447     37.0595E-03     39.0100E-03
            2859            3448     32.3283E-03     34.2774E-03
            2860            3430     32.9982E-03     34.6277E-03
            2860            3431     28.2849E-03     29.9585E-03
            2860            3448     32.3283E-03     34.2774E-03
            2860            3449     27.6141E-03     29.5758E-03
            2861            3431     28.2849E-03     29.9585E-03
            2861            3432     23.6151E-03     25.3551E-03
            2861            3449     27.6141E-03     29.5758E-03
            2861            3450     22.9176E-03     24.8951E-03
            2862            3432     23.6151E-03     25.3551E-03
            2862            3433     19.0178E-03     20.8178E-03
            2862            3450     22.9176E-03     24.8951E-03
            2862            3451     18.2427E-03     20.2649E-03
            2863            3433     19.0178E-03     20.8178E-03
            2863            3434     14.5831E-03     16.3817E-03
            2863            3451     18.2427E-03     20.2649E-03
            2863            3452     13.6325E-03     15.6824E-03
            2864            3434     14.5831E-03     16.3817E-03
            2864            3435     10.5157E-03     12.0925E-03
            2864            3452     13.6325E-03     15.6824E-03
            2864            3453     9.22148E-03     11.1400E-03
            2865            3435     10.5157E-03     12.0925E-03
            2865            3436     7.44042E-03     8.31724E-03
            2865            3453     9.22148E-03     11.1400E-03
            2865            3454     5.53569E-03     6.83264E-03
            2866             430     3.98103E-03     4.77812E-03
            2866             431     6.27435E-03     6.64692E-03
            2866            3436     7.44042E-03     8.31724E-03
            2866            3454     5.53569E-03     6.83264E-03
            2867             647     98.5699E-03     100.321E-03
            2867             648     96.2012E-03     98.1656E-03
            2867            3437     89.6142E-03     91.7296E-03
            2867            3455     90.0045E-03     92.0743E-03
            2868            3437     89.6142E-03     91.7296E-03
            2868            3438     83.1369E-03     85.3716E-03
            2868            3455     90.0045E-03     92.0743E-03
            2868            3456     82.2780E-03     84.7349E-03
            2869            3438     83.1369E-03     85.3716E-03
            2869            3439     77.0308E-03     79.3937E-03
            2869            3456     82.2780E-03     84.7349E-03
            2869            3457     75.9461E-03     78.4493E-03
            2870            3439     77.0308E-03     79.3937E-03
            2870            3440     71.4946E-03     73.8082E-03
            2870            3457     75.9461E-03     78.4493E-03
            2870            3458     70.2443E-03     72.7356E-03
            2871            3440     71.4946E-03     73.8082E-03
            2871            3441     66.2221E-03     68.4650E-03
            2871            3458     70.2443E-03     72.7356E-03
            2871            3459     64.9866E-03     67.4538E-03
            2872            3441     66.2221E-03     68.4650E-03
            2872            3442     61.1648E-03     63.3331E-03
            2872            3459     64.9866E-03     67.4538E-03
            2872            3460     59.9920E-03     62.4084E-03
            2873            3442     61.1648E-03     63.3331E-03
            2873            3443     56.2310E-03     58.3236E-03
            2873            3460     59.9920E-03     62.4084E-03
            2873            3461     55.1401E-03     57.5274E-03
            2874            3443     56.2310E-03     58.3236E-03
            2874            3444     51.3761E-03     53.4158E-03
            2874            3461     55.1401E-03     57.5274E-03
            2874            3462     50.3831E-03     52.7342E-03
            2875            3444     51.3761E-03     53.4158E-03
            2875            3445     46.5750E-03     48.5691E-03
            2875            3462     50.3831E-03     52.7342E-03
            2875            3463     45.6686E-03     47.9981E-03
            2876            3445     46.5750E-03     48.5691E-03
            2876            3446     41.8047E-03     43.7721E-03
            2876            3463     45.6686E-03     47.9981E-03
            2876            3464     40.9856E-03     43.2911E-03
            2877            3446     41.8047E-03     43.7721E-03
            2877            3447     37.0595E-03     39.0100E-03
            2877            3464     40.9856E-03     43.2911E-03
            2877            3465     36.3129E-03     38.6005E-03
            2878            3447     37.0595E-03     39.0100E-03
            2878            3448     32.3283E-03     34.2774E-03
            2878            3465     36.3129E-03     38.6005E-03
            2878            3466     31.6517E-03     33.9191E-03
            2879            3448     32.3283E-03     34.2774E-03
            2879            3449     27.6141E-03     29.5758E-03
            2879            3466     31.6517E-03     33.9191E-03
            2879            3467     26.9933E-03     29.2373E-03
            2880            3449     27.6141E-03     29.5758E-03
            2880            3450     22.9176E-03     24.8951E-03
            2880            3467     26.9933E-03     29.2373E-03
            2880            3468     22.3393E-03     24.5656E-03
            2881            3450     22.9176E-03     24.8951E-03
            2881            3451     18.2427E-03     20.2649E-03
            2881            3468     22.3393E-03     24.5656E-03
            2881            3469     17.6929E-03     19.8883E-03
            2882            3451     18.2427E-03     20.2649E-03
            2882            3452     13.6325E-03     15.6824E-03
            2882            3469     17.6929E-03     19.8883E-03
            2882            3470     13.0226E-03     15.2690E-03
            2883            3452     13.6325E-03     15.6824E-03
            2883            3453     9.22148E-03     11.1400E-03
            2883            3470     13.0226E-03     15.2690E-03
            2883            3471     8.36513E-03     10.7413E-03
            2884            3453     9.22148E-03     11.1400E-03
            2884            3454     5.53569E-03     6.83264E-03
            2884            3471     8.36513E-03     10.7413E-03
            2884            3472     4.08408E-03     6.09464E-03
            2885             429     2.11239E-03     3.70345E-03
            2885             430     3.98103E-03     4.77812E-03
            2885            3454     5.53569E-03     6.83264E-03
            2885            3472     4.08408E-03     6.09464E-03
            2886             646     98.9813E-03     100.676E-03
            2886             647     98.5699E-03     100.321E-03
            2886            3455     90.0045E-03     92.0743E-03
            2886            3473     88.2146E-03     90.6605E-03
            2887            3455     90.0045E-03     92.0743E-03
            2887            3456     82.2780E-03     84.7349E-03
            2887            3473     88.2146E-03     90.6605E-03
            2887            3474     80.5497E-03     83.1088E-03
            2888            3456     82.2780E-03     84.7349E-03
            2888            3457     75.9461E-03     78.4493E-03
            2888            3474     80.5497E-03     83.1088E-03
            2888            3475     74.1923E-03     76.7656E-03
            2889            3457     75.9461E-03     78.4493E-03
            2889            3458     70.2443E-03     72.7356E-03
            2889            3475     74.1923E-03     76.7656E-03
            2889            3476     68.5874E-03     71.2040E-03
            2890            3458     70.2443E-03     72.7356E-03
            2890            3459     64.9866E-03     67.4538E-03
            2890            3476     68.5874E-03     71.2040E-03
            2890            3477     63.4729E-03     66.0930E-03
            2891            3459     64.9866E-03     67.4538E-03
            2891            3460     59.9920E-03     62.4084E-03
            2891            3477     63.4729E-03     66.0930E-03
            2891            3478     58.6013E-03     61.2474E-03
            2892            3460     59.9920E-03     62.4084E-03
            2892            3461     55.1401E-03     57.5274E-03
            2892            3478     58.6013E-03     61.2474E-03
            2892            3479     53.8987E-03     56.5507E-03
            2893            3461     55.1401E-03     57.5274E-03
            2893            3462     50.3831E-03     52.7342E-03
            2893            3479     53.8987E-03     56.5507E-03
            2893            3480     49.2676E-03     51.9318E-03
            2894            3462     50.3831E-03     52.7342E-03
            2894            3463     45.6686E-03     47.9981E-03
            2894            3480     49.2676E-03     51.9318E-03
            2894            3481     44.6876E-03     47.3498E-03
            2895            3463     45.6686E-03     47.9981E-03
            2895            3464     40.9856E-03     43.2911E-03
            2895            3481     44.6876E-03     47.3498E-03
            2895            3482     40.1223E-03     42.7790E-03
            2896            3464     40.9856E-03     43.2911E-03
            2896            3465     36.3129E-03     38.6005E-03
            2896            3482     40.1223E-03     42.7790E-03
            2896            3483     35.5703E-03     38.2071E-03
            2897            3465     36.3129E-03     38.6005E-03
            2897            3466     31.6517E-03     33.9191E-03
            2897            3483     35.5703E-03     38.2071E-03
            2897            3484     31.0199E-03     33.6236E-03
            2898            3466     31.6517E-03     33.9191E-03
            2898            3467     26.9933E-03     29.2373E-03
            2898            3484     31.0199E-03     33.6236E-03
            2898            3485     26.4767E-03     29.0283E-03
            2899            3467     26.9933E-03     29.2373E-03
            2899            3468     22.3393E-03     24.5656E-03
            2899            3485     26.4767E-03     29.0283E-03
            2899            3486     21.9408E-03     24.4142E-03
            2900            3468     22.3393E-03     24.5656E-03
            2900            3469     17.6929E-03     19.8883E-03
            2900            3486     21.9408E-03     24.4142E-03
            2900            3487     17.4144E-03     19.7978E-03
            2901            3469     17.6929E-03     19.8883E-03
            2901            3470     13.0226E-03     15.2690E-03
            2901            3487     17.4144E-03     19.7978E-03
            2901            3488     12.9039E-03     15.1892E-03
            2902            3470     13.0226E-03     15.2690E-03
            2902            3471     8.36513E-03     10.7413E-03
            2902            3488     12.9039E-03     15.1892E-03
            2902            3489     8.33397E-03     10.7817E-03
            2903            3471     8.36513E-03     10.7413E-03
            2903            3472     4.08408E-03     6.09464E-03
            2903            3489     8.33397E-03     10.7817E-03
            2903            3490     4.10610E-03     6.75091E-03
            2904             428     2.19685E-03     4.82277E-03
            2904             429     2.11239E-03     3.70345E-03
            2904            3472     4.08408E-03     6.09464E-03
            2904            3490     4.10610E-03     6.75091E-03
            2905             645     95.4172E-03     98.1301E-03
            2905             646     98.9813E-03     100.676E-03
            2905            3473     88.2146E-03     90.6605E-03
            2905            3491     85.4517E-03     87.9663E-03
            2906            3473     88.2146E-03     90.6605E-03
            2906            3474     80.5497E-03     83.1088E-03
            2906            3491     85.4517E-03     87.9663E-03
            2906            3492     78.2860E-03     80.7536E-03
            2907            3474     80.5497E-03     83.1088E-03
            2907            3475     74.1923E-03     76.7656E-03
            2907            3492     78.2860E-03     80.7536E-03
            2907            3493     72.1554E-03     74.7067E-03
            2908            3475     74.1923E-03     76.7656E-03
            2908            3476     68.5874E-03     71.2040E-03
            2908            3493     72.1554E-03     74.7067E-03
            2908            3494     66.8258E-03     69.4771E-03
            2909            3476     68.5874E-03     71.2040E-03
            2909            3477     63.4729E-03     66.0930E-03
            2909            3494     66.8258E-03     69.4771E-03
            2909            3495     61.8668E-03     64.6323E-03
            2910            3477     63.4729E-03     66.0930E-03
            2910            3478     58.6013E-03     61.2474E-03
            2910            3495     61.8668E-03     64.6323E-03
            2910            3496     57.1839E-03     60.0425E-03
            2911            3478     58.6013E-03     61.2474E-03
            2911            3479     53.8987E-03     56.5507E-03
            2911            3496     57.1839E-03     60.0425E-03
            2911            3497     52.6273E-03     55.5625E-03
            2912            3479     53.8987E-03     56.5507E-03
            2912            3480     49.2676E-03     51.9318E-03
            2912            3497     52.6273E-03     55.5625E-03
            2912            3498     48.1597E-03     51.1465E-03
            2913            3480     49.2676E-03     51.9318E-03
            2913            3481     44.6876E-03     47.3498E-03
            2913            3498     48.1597E-03     51.1465E-03
            2913            3499     43.7249E-03     46.7440E-03
            2914            3481     44.6876E-03     47.3498E-03
            2914            3482     40.1223E-03     42.7790E-03
            2914            3499     43.7249E-03     46.7440E-03
            2914            3500     39.3136E-03     42.3417E-03
            2915            3482     40.1223E-03     42.7790E-03
            2915            3483     35.5703E-03     38.2071E-03
            2915            3500     39.3136E-03     42.3417E-03
            2915            3501     34.9085E-03     37.9229E-03
            2916            3483     35.5703E-03     38.2071E-03
            2916            3484     31.0199E-03     33.6236E-03
            2916            3501     34.9085E-03     37.9229E-03
            2916            3502     30.5146E-03     33.4861E-03
            2917            3484     31.0199E-03     33.6236E-03
            2917            3485     26.4767E-03     29.0283E-03
            2917            3502     30.5146E-03     33.4861E-03
            2917            3503     26.1370E-03     29.0268E-03
            2918            3485     26.4767E-03     29.0283E-03
            2918            3486     21.9408E-03     24.4142E-03
            2918            3503     26.1370E-03     29.0268E-03
            2918            3504     21.7898E-03     24.5483E-03
            2919            3486     21.9408E-03     24.4142E-03
            2919            3487     17.4144E-03     19.7978E-03
            2919            3504     21.7898E-03     24.5483E-03
            2919            3505     17.5045E-03     20.0619E-03
            2920            3487     17.4144E-03     19.7978E-03
            2920            3488     12.9039E-03     15.1892E-03
            2920            3505     17.5045E-03     20.0619E-03
            2920            3506     13.3143E-03     15.5961E-03
            2921            3488     12.9039E-03     15.1892E-03
            2921            3489     8.33397E-03     10.7817E-03
            2921            3506     13.3143E-03     15.5961E-03
            2921            3507     9.32735E-03     11.2997E-03
            2922            3489     8.33397E-03     10.7817E-03
            2922            3490     4.10610E-03     6.75091E-03
            2922            3507     9.32735E-03     11.2997E-03
            2922            3508     5.77264E-03     7.92560E-03
            2923             427     4.13519E-03     6.62502E-03
            2923             428     2.19685E-03     4.82277E-03
            2923            3490     4.10610E-03     6.75091E-03
            2923            3508     5.77264E-03     7.92560E-03
            2924             644     99.9220E-03     100.223E-03
            2924             645     95.4172E-03     98.1301E-03
            2924            3491     85.4517E-03     87.9663E-03
            2924            3509     93.9263E-03     94.1064E-03
            2925            3491     85.4517E-03     87.9663E-03
            2925            3492     78.2860E-03     80.7536E-03
            2925            3509     93.9263E-03     94.1064E-03
            2925            3510     88.3827E-03     88.8530E-03
            2926            3492     78.2860E-03     80.7536E-03
            2926            3493     72.1554E-03     74.7067E-03
            2926            3510     88.3827E-03     88.8530E-03
            2926            3511     83.3429E-03     84.0558E-03
            2927            3493     72.1554E-03     74.7067E-03
            2927            3494     66.8258E-03     69.4771E-03
            2927            3511     83.3429E-03     84.0558E-03
            2927            3512     78.3805E-03     79.4299E-03
            2928            3494     66.8258E-03     69.4771E-03
            2928            3495     61.8668E-03     64.6323E-03
            2928            3512     78.3805E-03     79.4299E-03
            2928            3513     73.5448E-03     74.8139E-03
            2929            3495     61.8668E-03     64.6323E-03
            2929            3496     57.1839E-03     60.0425E-03
            2929            3513     73.5448E-03     74.8139E-03
            2929            3514     68.6955E-03     70.1909E-03
            2930            3496     57.1839E-03     60.0425E-03
            2930            3497     52.6273E-03     55.5625E-03
            2930            3514     68.6955E-03     70.1909E-03
            2930            3515     63.8660E-03     65.5014E-03
            2931            3497     52.6273E-03     55.5625E-03
            2931            3498     48.1597E-03     51.1465E-03
            2931            3515     63.8660E-03     65.5014E-03
            2931            3516     59.0077E-03     60.7683E-03
            2932            3498     48.1597E-03     51.1465E-03
            2932            3499     43.7249E-03     46.7440E-03
            2932            3516     59.0077E-03     60.7683E-03
            2932            3517     54.1496E-03     55.9810E-03
            2933            3499     43.7249E-03     46.7440E-03
            2933            3500     39.3136E-03     42.3417E-03
            2933            3517     54.1496E-03     55.9810E-03
            2933            3518     49.2826E-03     51.1638E-03
            2934            3500     39.3136E-03     42.3417E-03
            2934            3501     34.9085E-03     37.9229E-03
            2934            3518     49.2826E-03     51.1638E-03
            2934            3519     44.4389E-03     46.3281E-03
            2935            3501     34.9085E-03     37.9229E-03
            2935            3502     30.5146E-03     33.4861E-03
            2935            3519     44.4389E-03     46.3281E-03
            2935            3520     39.6371E-03     41.4998E-03
            2936            3502     30.5146E-03     33.4861E-03
            2936            3503     26.1370E-03     29.0268E-03
            2936            3520     39.6371E-03     41.4998E-03
            2936            3521     34.9236E-03     36.7057E-03
            2937            3503     26.1370E-03     29.0268E-03
            2937            3504     21.7898E-03     24.5483E-03
            2937            3521     34.9236E-03     36.7057E-03
            2937            3522     30.3518E-03     31.9874E-03
            2938            3504     21.7898E-03     24.5483E-03
            2938            3505     17.5045E-03     20.0619E-03
            2938            3522     30.3518E-03     31.9874E-03
            2938            3523     26.0040E-03     27.4227E-03
            2939            3505     17.5045E-03     20.0619E-03
            2939            3506     13.3143E-03     15.5961E-03
            2939            3523     26.0040E-03     27.4227E-03
            2939            3524     21.9790E-03     23.0965E-03
            2940            3506     13.3143E-03     15.5961E-03
            2940            3507     9.32735E-03     11.2997E-03
            2940            3524     21.9790E-03     23.0965E-03
            2940            3525     18.4197E-03     19.4257E-03
            2941            3507     9.32735E-03     11.2997E-03
            2941            3508     5.77264E-03     7.92560E-03
            2941            3525     18.4197E-03     19.4257E-03
            2941            3526     14.9090E-03     17.2672E-03
            2942             426     13.0507E-03     16.6990E-03
            2942             427     4.13519E-03     6.62502E-03
            2942            3508     5.77264E-03     7.92560E-03
            2942            3526     14.9090E-03     17.2672E-03
            2943             643     109.943E-03     109.040E-03
            2943             644     99.9220E-03     100.223E-03
            2943            3509     93.9263E-03     94.1064E-03
            2943            3527     106.319E-03     105.443E-03
            2944            3509     93.9263E-03     94.1064E-03
            2944            3510     88.3827E-03     88.8530E-03
            2944            3527     106.319E-03     105.443E-03
            2944            3528     102.164E-03     101.492E-03
            2945            3510     88.3827E-03     88.8530E-03
            2945            3511     83.3429E-03     84.0558E-03
            2945            3528     102.164E-03     101.492E-03
            2945            3529     97.5294E-03     97.1076E-03
            2946            3511     83.3429E-03     84.0558E-03
            2946            3512     78.3805E-03     79.4299E-03
            2946            3529     97.5294E-03     97.1076E-03
            2946            3530     92.5800E-03     92.4094E-03
            2947            3512     78.3805E-03     79.4299E-03
            2947            3513     73.5448E-03     74.8139E-03
            2947            3530     92.5800E-03     92.4094E-03
            2947            3531     87.3785E-03     87.4352E-03
            2948            3513     73.5448E-03     74.8139E-03
            2948            3514     68.6955E-03     70.1909E-03
            2948            3531     87.3785E-03     87.4352E-03
            2948            3532     82.0052E-03     82.2445E-03
            2949            3514     68.6955E-03     70.1909E-03
            2949            3515     63.8660E-03     65.5014E-03
            2949            3532     82.0052E-03     82.2445E-03
            2949            3533     76.5018E-03     76.8973E-03
            2950            3515     63.8660E-03     65.5014E-03
            2950            3516     59.0077E-03     60.7683E-03
            2950            3533     76.5018E-03     76.8973E-03
            2950            3534     70.9248E-03     71.4310E-03
            2951            3516     59.0077E-03     60.7683E-03
            2951            3517     54.1496E-03     55.9810E-03
            2951            3534     70.9248E-03     71.4310E-03
            2951            3535     65.3005E-03     65.8950E-03
            2952            3517     54.1496E-03     55.9810E-03
            2952            3518     49.2826E-03     51.1638E-03
            2952            3535     65.3005E-03     65.8950E-03
            2952            3536     59.6745E-03     60.3214E-03
            2953            3518     49.2826E-03     51.1638E-03
            2953            3519     44.4389E-03     46.3281E-03
            2953            3536     59.6745E-03     60.3214E-03
            2953            3537     54.0780E-03     54.7510E-03
            2954            3519     44.4389E-03     46.3281E-03
            2954            3520     39.6371E-03     41.4998E-03
            2954            3537     54.0780E-03     54.7510E-03
            2954            3538     48.5577E-03     49.2249E-03
            2955            3520     39.6371E-03     41.4998E-03
            2955            3521     34.9236E-03     36.7057E-03
            2955            3538     48.5577E-03     49.2249E-03
            2955            3539     43.1735E-03     43.7978E-03
            2956            3521     34.9236E-03     36.7057E-03
            2956            3522     30.3518E-03     31.9874E-03
            2956            3539     43.1735E-03     43.7978E-03
            2956            3540     37.9877E-03     38.5497E-03
            2957            3522     30.3518E-03     31.9874E-03
            2957            3523     26.0040E-03     27.4227E-03
            2957            3540     37.9877E-03     38.5497E-03
            2957            3541     33.1186E-03     33.6268E-03
            2958            3523     26.0040E-03     27.4227E-03
            2958            3524     21.9790E-03     23.0965E-03
            2958            3541     33.1186E-03     33.6268E-03
            2958            3542     28.6372E-03     29.2642E-03
            2959            3524     21.9790E-03     23.0965E-03
            2959            3525     18.4197E-03     19.4257E-03
            2959            3542     28.6372E-03     29.2642E-03
            2959            3543     24.6287E-03     26.1421E-03
            2960            3525     18.4197E-03     19.4257E-03
            2960            3526     14.9090E-03     17.2672E-03
            2960            3543     24.6287E-03     26.1421E-03
            2960            3544     21.5763E-03     25.0527E-03
            2961             425     20.3787E-03     25.0784E-03
            2961             426     13.0507E-03     16.6990E-03
            2961            3526     14.9090E-03     17.2672E-03
            2961            3544     21.5763E-03     25.0527E-03
            2962             642     115.457E-03     116.508E-03
            2962             643     109.943E-03     109.040E-03
            2962            3527     106.319E-03     105.443E-03
            2962            3545     111.242E-03     112.228E-03
            2963            3527     106.319E-03     105.443E-03
            2963            3528     102.164E-03     101.492E-03
            2963            3545     111.242E-03     112.228E-03
            2963            3546     106.552E-03     107.342E-03
            2964            3528     102.164E-03     101.492E-03
            2964            3529     97.5294E-03     97.1076E-03
            2964            3546     106.552E-03     107.342E-03
            2964            3547     101.339E-03     102.037E-03
            2965            3529     97.5294E-03     97.1076E-03
            2965            3530     92.5800E-03     92.4094E-03
            2965            3547     101.339E-03     102.037E-03
            2965            3548     95.7733E-03     96.4683E-03
            2966            3530     92.5800E-03     92.4094E-03
            2966            3531     87.3785E-03     87.4352E-03
            2966            3548     95.7733E-03     96.4683E-03
            2966            3549     89.9803E-03     90.6895E-03
            2967            3531     87.3785E-03     87.4352E-03
            2967            3532     82.0052E-03     82.2445E-03
            2967            3549     89.9803E-03     90.6895E-03
            2967            3550     84.0300E-03     84.7944E-03
            2968            3532     82.0052E-03     82.2445E-03
            2968            3533     76.5018E-03     76.8973E-03
            2968            3550     84.0300E-03     84.7944E-03
            2968            3551     78.0070E-03     78.8090E-03
            2969            3533     76.5018E-03     76.8973E-03
            2969            3534     70.9248E-03     71.4310E-03
            2969            3551     78.0070E-03     78.8090E-03
            2969            3552     71.9346E-03     72.7870E-03
            2970            3534     70.9248E-03     71.4310E-03
            2970            3535     65.3005E-03     65.8950E-03
            2970            3552     71.9346E-03     72.7870E-03
            2970            3553     65.8638E-03     66.7448E-03
            2971            3535     65.3005E-03     65.8950E-03
            2971            3536     59.6745E-03     60.3214E-03
            2971            3553     65.8638E-03     66.7448E-03
            2971            3554     59.8050E-03     60.7138E-03
            2972            3536     59.6745E-03     60.3214E-03
            2972            3537     54.0780E-03     54.7510E-03
            2972            3554     59.8050E-03     60.7138E-03
            2972            3555     53.7947E-03     54.7141E-03
            2973            3537     54.0780E-03     54.7510E-03
            2973            3538     48.5577E-03     49.2249E-03
            2973            3555     53.7947E-03     54.7141E-03
            2973            3556     47.8493E-03     48.7794E-03
            2974            3538     48.5577E-03     49.2249E-03
            2974            3539     43.1735E-03     43.7978E-03
            2974            3556     47.8493E-03     48.7794E-03
            2974            3557     42.0115E-03     42.9537E-03
            2975            3539     43.1735E-03     43.7978E-03
            2975            3540     37.9877E-03     38.5497E-03
            2975            3557     42.0115E-03     42.9537E-03
            2975            3558     36.3163E-03     37.3207E-03
            2976            3540     37.9877E-03     38.5497E-03
            2976            3541     33.1186E-03     33.6268E-03
            2976            3558     36.3163E-03     37.3207E-03
            2976            3559     30.8431E-03     32.0196E-03
            2977            3541     33.1186E-03     33.6268E-03
            2977            3542     28.6372E-03     29.2642E-03
            2977            3559     30.8431E-03     32.0196E-03
            2977            3560     25.6526E-03     27.3649E-03
            2978            3542     28.6372E-03     29.2642E-03
            2978            3543     24.6287E-03     26.1421E-03
            2978            3560     25.6526E-03     27.3649E-03
            2978            3561     21.1340E-03     23.8860E-03
            2979            3543     24.6287E-03     26.1421E-03
            2979            3544     21.5763E-03     25.0527E-03
            2979            3561     21.1340E-03     23.8860E-03
            2979            3562     18.6981E-03     21.1056E-03
            2980             424     18.2537E-03     19.6973E-03
            2980             425     20.3787E-03     25.0784E-03
            2980            3544     21.5763E-03     25.0527E-03
            2980            3562     18.6981E-03     21.1056E-03
            2981             641     120.083E-03     122.113E-03
            2981             642     115.457E-03     116.508E-03
            2981            3545     111.242E-03     112.228E-03
            2981            3563     115.481E-03     117.448E-03
            2982            3545     111.242E-03     112.228E-03
            2982            3546     106.552E-03     107.342E-03
            2982            3563     115.481E-03     117.448E-03
            2982            3564     110.159E-03     112.012E-03
            2983            3546     106.552E-03     107.342E-03
            2983            3547     101.339E-03     102.037E-03
            2983            3564     110.159E-03     112.012E-03
            2983            3565     104.449E-03     106.074E-03
            2984            3547     101.339E-03     102.037E-03
            2984            3548     95.7733E-03     96.4683E-03
            2984            3565     104.449E-03     106.074E-03
            2984            3566     98.3603E-03     99.8266E-03
            2985            3548     95.7733E-03     96.4683E-03
            2985            3549     89.9803E-03     90.6895E-03
            2985            3566     98.3603E-03     99.8266E-03
            2985            3567     92.0701E-03     93.4414E-03
            2986            3549     89.9803E-03     90.6895E-03
            2986            3550     84.0300E-03     84.7944E-03
            2986            3567     92.0701E-03     93.4414E-03
            2986            3568     85.6785E-03     86.9704E-03
            2987            3550     84.0300E-03     84.7944E-03
            2987            3551     78.0070E-03     78.8090E-03
            2987            3568     85.6785E-03     86.9704E-03
            2987            3569     79.2294E-03     80.4924E-03
            2988            3551     78.0070E-03     78.8090E-03
            2988            3552     71.9346E-03     72.7870E-03
            2988            3569     79.2294E-03     80.4924E-03
            2988            3570     72.7865E-03     74.0194E-03
            2989            3552     71.9346E-03     72.7870E-03
            2989            3553     65.8638E-03     66.7448E-03
            2989            3570     72.7865E-03     74.0194E-03
            2989            3571     66.3522E-03     67.5805E-03
            2990            3553     65.8638E-03     66.7448E-03
            2990            3554     59.8050E-03     60.7138E-03
            2990            3571     66.3522E-03     67.5805E-03
            2990            3572     59.9598E-03     61.1822E-03
            2991            3554     59.8050E-03     60.7138E-03
            2991            3555     53.7947E-03     54.7141E-03
            2991            3572     59.9598E-03     61.1822E-03
            2991            3573     53.6063E-03     54.8419E-03
            2992            3555     53.7947E-03     54.7141E-03
            2992            3556     47.8493E-03     48.7794E-03
            2992            3573     53.6063E-03     54.8419E-03
            2992            3574     47.3169E-03     48.5794E-03
            2993            3556     47.8493E-03     48.7794E-03
            2993            3557     42.0115E-03     42.9537E-03
            2993            3574     47.3169E-03     48.5794E-03
            2993            3575     41.0944E-03     42.4279E-03
            2994            3557     42.0115E-03     42.9537E-03
            2994            3558     36.3163E-03     37.3207E-03
            2994            3575     41.0944E-03     42.4279E-03
            2994            3576     34.9765E-03     36.4608E-03
            2995            3558     36.3163E-03     37.3207E-03
            2995            3559     30.8431E-03     32.0196E-03
            2995            3576     34.9765E-03     36.4608E-03
            2995            3577     29.0039E-03     30.7777E-03
            2996            3559     30.8431E-03     32.0196E-03
            2996            3560     25.6526E-03     27.3649E-03
            2996            3577     29.0039E-03     30.7777E-03
            2996            3578     23.3241E-03     25.6480E-03
            2997            3560     25.6526E-03     27.3649E-03
            2997            3561     21.1340E-03     23.8860E-03
            2997            3578     23.3241E-03     25.6480E-03
            2997            3579     18.5962E-03     21.0254E-03
            2998            3561     21.1340E-03     23.8860E-03
            2998            3562     18.6981E-03     21.1056E-03
            2998            3579     18.5962E-03     21.0254E-03
            2998            3580     15.5229E-03     16.8863E-03
            2999             423     14.4495E-03     14.9988E-03
            2999             424     18.2537E-03     19.6973E-03
            2999            3562     18.6981E-03     21.1056E-03
            2999            3580     15.5229E-03     16.8863E-03
            3000             640     124.092E-03     126.383E-03
            3000             641     120.083E-03     122.113E-03
            3000            3563     115.481E-03     117.448E-03
            3000            3581     118.777E-03     121.325E-03
            3001            3563     115.481E-03     117.448E-03
            3001            3564     110.159E-03     112.012E-03
            3001            3581     118.777E-03     121.325E-03
            3001            3582     112.999E-03     115.427E-03
            3002            3564     110.159E-03     112.012E-03
            3002            3565     104.449E-03     106.074E-03
            3002            3582     112.999E-03     115.427E-03
            3002            3583     106.697E-03     108.986E-03
            3003            3565     104.449E-03     106.074E-03
            3003            3566     98.3603E-03     99.8266E-03
            3003            3583     106.697E-03     108.986E-03
            3003            3584     100.162E-03     102.256E-03
            3004            3566     98.3603E-03     99.8266E-03
            3004            3567     92.0701E-03     93.4414E-03
            3004            3584     100.162E-03     102.256E-03
            3004            3585     93.4766E-03     95.3945E-03
            3005            3567     92.0701E-03     93.4414E-03
            3005            3568     85.6785E-03     86.9704E-03
            3005            3585     93.4766E-03     95.3945E-03
            3005            3586     86.7311E-03     88.5290E-03
            3006            3568     85.6785E-03     86.9704E-03
            3006            3569     79.2294E-03     80.4924E-03
            3006            3586     86.7311E-03     88.5290E-03
            3006            3587     79.9991E-03     81.6912E-03
            3007            3569     79.2294E-03     80.4924E-03
            3007            3570     72.7865E-03     74.0194E-03
            3007            3587     79.9991E-03     81.6912E-03
            3007            3588     73.2816E-03     74.9117E-03
            3008            3570     72.7865E-03     74.0194E-03
            3008            3571     66.3522E-03     67.5805E-03
            3008            3588     73.2816E-03     74.9117E-03
            3008            3589     66.6106E-03     68.1931E-03
            3009            3571     66.3522E-03     67.5805E-03
            3009            3572     59.9598E-03     61.1822E-03
            3009            3589     66.6106E-03     68.1931E-03
            3009            3590     59.9750E-03     61.5412E-03
            3010            3572     59.9598E-03     61.1822E-03
            3010            3573     53.6063E-03     54.8419E-03
            3010            3590     59.9750E-03     61.5412E-03
            3010            3591     53.3886E-03     54.9602E-03
            3011            3573     53.6063E-03     54.8419E-03
            3011            3574     47.3169E-03     48.5794E-03
            3011            3591     53.3886E-03     54.9602E-03
            3011            3592     46.8412E-03     48.4594E-03
            3012            3574     47.3169E-03     48.5794E-03
            3012            3575     41.0944E-03     42.4279E-03
            3012            3592     46.8412E-03     48.4594E-03
            3012            3593     40.3450E-03     42.0685E-03
            3013            3575     41.0944E-03     42.4279E-03
            3013            3576     34.9765E-03     36.4608E-03
            3013            3593     40.3450E-03     42.0685E-03
            3013            3594     33.9111E-03     35.8106E-03
            3014            3576     34.9765E-03     36.4608E-03
            3014            3577     29.0039E-03     30.7777E-03
            3014            3594     33.9111E-03     35.8106E-03
            3014            3595     27.5732E-03     29.7914E-03
            3015            3577     29.0039E-03     30.7777E-03
            3015            3578     23.3241E-03     25.6480E-03
            3015            3595     27.5732E-03     29.7914E-03
            3015            3596     21.5587E-03     24.0225E-03
            3016            3578     23.3241E-03     25.6480E-03
            3016            3579     18.5962E-03     21.0254E-03
            3016            3596     21.5587E-03     24.0225E-03
            3016            3597     16.2154E-03     18.4982E-03
            3017            3579     18.5962E-03     21.0254E-03
            3017            3580     15.5229E-03     16.8863E-03
            3017            3597     16.2154E-03     18.4982E-03
            3017            3598     12.4052E-03     13.9959E-03
            3018             422     11.0580E-03     12.1718E-03
            3018             423     14.4495E-03     14.9988E-03
            3018            3580     15.5229E-03     16.8863E-03
            3018            3598     12.4052E-03     13.9959E-03
            3019             639     127.486E-03     129.858E-03
            3019             640     124.092E-03     126.383E-03
            3019            3581     118.777E-03     121.325E-03
            3019            3599     121.452E-03     124.149E-03
            3020            3581     118.777E-03     121.325E-03
            3020            3582     112.999E-03     115.427E-03
            3020            3599     121.452E-03     124.149E-03
            3020            3600     114.903E-03     117.710E-03
            3021            3582     112.999E-03     115.427E-03
            3021            3583     106.697E-03     108.986E-03
            3021            3600     114.903E-03     117.710E-03
            3021            3601     108.078E-03     110.775E-03
            3022            3583     106.697E-03     108.986E-03
            3022            3584     100.162E-03     102.256E-03
            3022            3601     108.078E-03     110.775E-03
            3022            3602     101.095E-03     103.622E-03
            3023            3584     100.162E-03     102.256E-03
            3023            3585     93.4766E-03     95.3945E-03
            3023            3602     101.095E-03     103.622E-03
            3023            3603     94.0805E-03     96.4463E-03
            3024            3585     93.4766E-03     95.3945E-03
            3024            3586     86.7311E-03     88.5290E-03
            3024            3603     94.0805E-03     96.4463E-03
            3024            3604     87.1195E-03     89.3246E-03
            3025            3586     86.7311E-03     88.5290E-03
            3025            3587     79.9991E-03     81.6912E-03
            3025            3604     87.1195E-03     89.3246E-03
            3025            3605     80.1986E-03     82.2842E-03
            3026            3587     79.9991E-03     81.6912E-03
            3026            3588     73.2816E-03     74.9117E-03
            3026            3605     80.1986E-03     82.2842E-03
            3026            3606     73.3429E-03     75.3335E-03
            3027            3588     73.2816E-03     74.9117E-03
            3027            3589     66.6106E-03     68.1931E-03
            3027            3606     73.3429E-03     75.3335E-03
            3027            3607     66.5335E-03     68.4639E-03
            3028            3589     66.6106E-03     68.1931E-03
            3028            3590     59.9750E-03     61.5412E-03
            3028            3607     66.5335E-03     68.4639E-03
            3028            3608     59.7738E-03     61.6720E-03
            3029            3590     59.9750E-03     61.5412E-03
            3029            3591     53.3886E-03     54.9602E-03
            3029            3608     59.7738E-03     61.6720E-03
            3029            3609     53.0494E-03     54.9521E-03
            3030            3591     53.3886E-03     54.9602E-03
            3030            3592     46.8412E-03     48.4594E-03
            3030            3609     53.0494E-03     54.9521E-03
            3030            3610     46.3584E-03     48.3098E-03
            3031            3592     46.8412E-03     48.4594E-03
            3031            3593     40.3450E-03     42.0685E-03
            3031            3610     46.3584E-03     48.3098E-03
            3031            3611     39.6937E-03     41.7499E-03
            3032            3593     40.3450E-03     42.0685E-03
            3032            3594     33.9111E-03     35.8106E-03
            3032            3611     39.6937E-03     41.7499E-03
            3032            3612     33.0572E-03     35.3033E-03
            3033            3594     33.9111E-03     35.8106E-03
            3033            3595     27.5732E-03     29.7914E-03
            3033            3612     33.0572E-03     35.3033E-03
            3033            3613     26.5066E-03     28.9666E-03
            3034            3595     27.5732E-03     29.7914E-03
            3034            3596     21.5587E-03     24.0225E-03
            3034            3613     26.5066E-03     28.9666E-03
            3034            3614     20.1180E-03     22.7329E-03
            3035            3596     21.5587E-03     24.0225E-03
            3035            3597     16.2154E-03     18.4982E-03
            3035            3614     20.1180E-03     22.7329E-03
            3035            3615     14.1752E-03     16.7735E-03
            3036            3597     16.2154E-03     18.4982E-03
            3036            3598     12.4052E-03     13.9959E-03
            3036            3615     14.1752E-03     16.7735E-03
            3036            3616     9.63392E-03     11.2805E-03
            3037             421     7.88890E-03     8.66343E-03
            3037             422     11.0580E-03     12.1718E-03
            3037            3598     12.4052E-03     13.9959E-03
            3037            3616     9.63392E-03     11.2805E-03
            3038             638     130.454E-03     132.837E-03
            3038             639     127.486E-03     129.858E-03
            3038            3599     121.452E-03     124.149E-03
            3038            3617     123.326E-03     126.173E-03
            3039            3599     121.452E-03     124.149E-03
            3039            3600     114.903E-03     117.710E-03
            3039            3617     123.326E-03     126.173E-03
            3039            3618     115.952E-03     118.929E-03
            3040            3600     114.903E-03     117.710E-03
            3040            3601     108.078E-03     110.775E-03
            3040            3618     115.952E-03     118.929E-03
            3040            3619     108.491E-03     111.411E-03
            3041            3601     108.078E-03     110.775E-03
            3041            3602     101.095E-03     103.622E-03
            3041            3619     108.491E-03     111.411E-03
            3041            3620     101.088E-03     103.921E-03
            3042            3602     101.095E-03     103.622E-03
            3042            3603     94.0805E-03     96.4463E-03
            3042            3620     101.088E-03     103.921E-03
            3042            3621     93.8882E-03     96.5627E-03
            3043            3603     94.0805E-03     96.4463E-03
            3043            3604     87.1195E-03     89.3246E-03
            3043            3621     93.8882E-03     96.5627E-03
            3043            3622     86.8003E-03     89.3306E-03
            3044            3604     87.1195E-03     89.3246E-03
            3044            3605     80.1986E-03     82.2842E-03
            3044            3622     86.8003E-03     89.3306E-03
            3044            3623     79.8301E-03     82.2380E-03
            3045            3605     80.1986E-03     82.2842E-03
            3045            3606     73.3429E-03     75.3335E-03
            3045            3623     79.8301E-03     82.2380E-03
            3045            3624     72.9372E-03     75.2479E-03
            3046            3606     73.3429E-03     75.3335E-03
            3046            3607     66.5335E-03     68.4639E-03
            3046            3624     72.9372E-03     75.2479E-03
            3046            3625     66.1062E-03     68.3523E-03
            3047            3607     66.5335E-03     68.4639E-03
            3047            3608     59.7738E-03     61.6720E-03
            3047            3625     66.1062E-03     68.3523E-03
            3047            3626     59.3200E-03     61.5284E-03
            3048            3608     59.7738E-03     61.6720E-03
            3048            3609     53.0494E-03     54.9521E-03
            3048            3626     59.3200E-03     61.5284E-03
            3048            3627     52.5647E-03     54.7704E-03
            3049            3609     53.0494E-03     54.9521E-03
            3049            3610     46.3584E-03     48.3098E-03
            3049            3627     52.5647E-03     54.7704E-03
            3049            3628     45.8309E-03     48.0725E-03
            3050            3610     46.3584E-03     48.3098E-03
            3050            3611     39.6937E-03     41.7499E-03
            3050            3628     45.8309E-03     48.0725E-03
            3050            3629     39.1071E-03     41.4363E-03
            3051            3611     39.6937E-03     41.7499E-03
            3051            3612     33.0572E-03     35.3033E-03
            3051            3629     39.1071E-03     41.4363E-03
            3051            3630     32.3930E-03     34.8721E-03
            3052            3612     33.0572E-03     35.3033E-03
            3052            3613     26.5066E-03     28.9666E-03
            3052            3630     32.3930E-03     34.8721E-03
            3052            3631     25.7019E-03     28.3663E-03
            3053            3613     26.5066E-03     28.9666E-03
            3053            3614     20.1180E-03     22.7329E-03
            3053            3631     25.7019E-03     28.3663E-03
            3053            3632     19.0814E-03     21.9187E-03
            3054            3614     20.1180E-03     22.7329E-03
            3054            3615     14.1752E-03     16.7735E-03
            3054            3632     19.0814E-03     21.9187E-03
            3054            3633     12.6442E-03     15.5383E-03
            3055            3615     14.1752E-03     16.7735E-03
            3055            3616     9.63392E-03     11.2805E-03
            3055            3633     12.6442E-03     15.5383E-03
            3055            3634     7.04995E-03     9.42840E-03
            3056             420     4.60984E-03     6.49399E-03
            3056             421     7.88890E-03     8.66343E-03
            3056            3616     9.63392E-03     11.2805E-03
            3056            3634     7.04995E-03     9.42840E-03
            3057             637     132.727E-03     135.400E-03
            3057             638     130.454E-03     132.837E-03
            3057            3617     123.326E-03     126.173E-03
            3057            3635     124.389E-03     127.263E-03
            3058            3617     123.326E-03     126.173E-03
            3058            3618     115.952E-03     118.929E-03
            3058            3635     124.389E-03     127.263E-03
            3058            3636     115.942E-03     118.918E-03
            3059            3618     115.952E-03     118.929E-03
            3059            3619     108.491E-03     111.411E-03
            3059            3636     115.942E-03     118.918E-03
            3059            3637     107.776E-03     110.863E-03
            3060            3619     108.491E-03     111.411E-03
            3060            3620     101.088E-03     103.921E-03
            3060            3637     107.776E-03     110.863E-03
            3060            3638     100.202E-03     103.193E-03
            3061            3620     101.088E-03     103.921E-03
            3061            3621     93.8882E-03     96.5627E-03
            3061            3638     100.202E-03     103.193E-03
            3061            3639     92.9045E-03     95.7813E-03
            3062            3621     93.8882E-03     96.5627E-03
            3062            3622     86.8003E-03     89.3306E-03
            3062            3639     92.9045E-03     95.7813E-03
            3062            3640     85.8464E-03     88.6143E-03
            3063            3622     86.8003E-03     89.3306E-03
            3063            3623     79.8301E-03     82.2380E-03
            3063            3640     85.8464E-03     88.6143E-03
            3063            3641     78.9331E-03     81.5943E-03
            3064            3623     79.8301E-03     82.2380E-03
            3064            3624     72.9372E-03     75.2479E-03
            3064            3641     78.9331E-03     81.5943E-03
            3064            3642     72.1122E-03     74.7008E-03
            3065            3624     72.9372E-03     75.2479E-03
            3065            3625     66.1062E-03     68.3523E-03
            3065            3642     72.1122E-03     74.7008E-03
            3065            3643     65.3574E-03     67.8853E-03
            3066            3625     66.1062E-03     68.3523E-03
            3066            3626     59.3200E-03     61.5284E-03
            3066            3643     65.3574E-03     67.8853E-03
            3066            3644     58.6382E-03     61.1337E-03
            3067            3626     59.3200E-03     61.5284E-03
            3067            3627     52.5647E-03     54.7704E-03
            3067            3644     58.6382E-03     61.1337E-03
            3067            3645     51.9472E-03     54.4278E-03
            3068            3627     52.5647E-03     54.7704E-03
            3068            3628     45.8309E-03     48.0725E-03
            3068            3645     51.9472E-03     54.4278E-03
            3068            3646     45.2652E-03     47.7602E-03
            3069            3628     45.8309E-03     48.0725E-03
            3069            3629     39.1071E-03     41.4363E-03
            3069            3646     45.2652E-03     47.7602E-03
            3069            3647     38.5890E-03     41.1353E-03
            3070            3629     39.1071E-03     41.4363E-03
            3070            3630     32.3930E-03     34.8721E-03
            3070            3647     38.5890E-03     41.1353E-03
            3070            3648     31.9089E-03     34.5391E-03
            3071            3630     32.3930E-03     34.8721E-03
            3071            3631     25.7019E-03     28.3663E-03
            3071            3648     31.9089E-03     34.5391E-03
            3071            3649     25.2015E-03     28.0177E-03
            3072            3631     25.7019E-03     28.3663E-03
            3072            3632     19.0814E-03     21.9187E-03
            3072            3649     25.2015E-03     28.0177E-03
            3072            3650     18.4998E-03     21.5507E-03
            3073            3632     19.0814E-03     21.9187E-03
            3073            3633     12.6442E-03     15.5383E-03
            3073            3650     18.4998E-03     21.5507E-03
            3073            3651     11.8582E-03     15.0307E-03
            3074            3633     12.6442E-03     15.5383E-03
            3074            3634     7.04995E-03     9.42840E-03
            3074            3651     11.8582E-03     15.0307E-03
            3074            3652     5.45981E-03     8.69771E-03
            3075             419     2.36439E-03     5.64413E-03
            3075             420     4.60984E-03     6.49399E-03
            3075            3634     7.04995E-03     9.42840E-03
            3075            3652     5.45981E-03     8.69771E-03
            3076             636     134.454E-03     136.828E-03
            3076             637     132.727E-03     135.400E-03
            3076            3635     124.389E-03     127.263E-03
            3076            3653     124.068E-03     126.767E-03
            3077            3635     124.389E-03     127.263E-03
            3077            3636     115.942E-03     118.918E-03
            3077            3653     124.068E-03     126.767E-03
            3077            3654     114.361E-03     117.455E-03
            3078            3636     115.942E-03     118.918E-03
            3078            3637     107.776E-03     110.863E-03
            3078            3654     114.361E-03     117.455E-03
            3078            3655     106.098E-03     109.190E-03
            3079            3637     107.776E-03     110.863E-03
            3079            3638     100.202E-03     103.193E-03
            3079            3655     106.098E-03     109.190E-03
            3079            3656     98.4581E-03     101.501E-03
            3080            3638     100.202E-03     103.193E-03
            3080            3639     92.9045E-03     95.7813E-03
            3080            3656     98.4581E-03     101.501E-03
            3080            3657     91.2779E-03     94.2699E-03
            3081            3639     92.9045E-03     95.7813E-03
            3081            3640     85.8464E-03     88.6143E-03
            3081            3657     91.2779E-03     94.2699E-03
            3081            3658     84.3720E-03     87.2881E-03
            3082            3640     85.8464E-03     88.6143E-03
            3082            3641     78.9331E-03     81.5943E-03
            3082            3658     84.3720E-03     87.2881E-03
            3082            3659     77.6160E-03     80.4902E-03
            3083            3641     78.9331E-03     81.5943E-03
            3083            3642     72.1122E-03     74.7008E-03
            3083            3659     77.6160E-03     80.4902E-03
            3083            3660     70.9659E-03     73.7904E-03
            3084            3642     72.1122E-03     74.7008E-03
            3084            3643     65.3574E-03     67.8853E-03
            3084            3660     70.9659E-03     73.7904E-03
            3084            3661     64.3624E-03     67.1592E-03
            3085            3643     65.3574E-03     67.8853E-03
            3085            3644     58.6382E-03     61.1337E-03
            3085            3661     64.3624E-03     67.1592E-03
            3085            3662     57.7981E-03     60.5645E-03
            3086            3644     58.6382E-03     61.1337E-03
            3086            3645     51.9472E-03     54.4278E-03
            3086            3662     57.7981E-03     60.5645E-03
            3086            3663     51.2459E-03     53.9941E-03
            3087            3645     51.9472E-03     54.4278E-03
            3087            3646     45.2652E-03     47.7602E-03
            3087            3663     51.2459E-03     53.9941E-03
            3087            3664     44.7091E-03     47.4416E-03
            3088            3646     45.2652E-03     47.7602E-03
            3088            3647     38.5890E-03     41.1353E-03
            3088            3664     44.7091E-03     47.4416E-03
            3088            3665     38.1733E-03     40.9002E-03
            3089            3647     38.5890E-03     41.1353E-03
            3089            3648     31.9089E-03     34.5391E-03
            3089            3665     38.1733E-03     40.9002E-03
            3089            3666     31.6378E-03     34.3934E-03
            3090            3648     31.9089E-03     34.5391E-03
            3090            3649     25.2015E-03     28.0177E-03
            3090            3666     31.6378E-03     34.3934E-03
            3090            3667     25.0987E-03     27.9178E-03
            3091            3649     25.2015E-03     28.0177E-03
            3091            3650     18.4998E-03     21.5507E-03
            3091            3667     25.0987E-03     27.9178E-03
            3091            3668     18.5022E-03     21.6064E-03
            3092            3650     18.4998E-03     21.5507E-03
            3092            3651     11.8582E-03     15.0307E-03
            3092            3668     18.5022E-03     21.6064E-03
            3092            3669     11.9889E-03     15.4928E-03
            3093            3651     11.8582E-03     15.0307E-03
            3093            3652     5.45981E-03     8.69771E-03
            3093            3669     11.9889E-03     15.4928E-03
            3093            3670     6.04316E-03     9.30729E-03
            3094             418     3.28842E-03     6.16121E-03
            3094             419     2.36439E-03     5.64413E-03
            3094            3652     5.45981E-03     8.69771E-03
            3094            3670     6.04316E-03     9.30729E-03
            3095             635     133.892E-03     135.984E-03
            3095             636     134.454E-03     136.828E-03
            3095            3653     124.068E-03     126.767E-03
            3095            3671     121.155E-03     124.050E-03
            3096            3653     124.068E-03     126.767E-03
            3096            3654     114.361E-03     117.455E-03
            3096            3671     121.155E-03     124.050E-03
            3096            3672     111.678E-03     114.650E-03
            3097            3654     114.361E-03     117.455E-03
            3097            3655     106.098E-03     109.190E-03
            3097            3672     111.678E-03     114.650E-03
            3097            3673     103.522E-03     106.484E-03
            3098            3655     106.098E-03     109.190E-03
            3098            3656     98.4581E-03     101.501E-03
            3098            3673     103.522E-03     106.484E-03
            3098            3674     96.1221E-03     99.1251E-03
            3099            3656     98.4581E-03     101.501E-03
            3099            3657     91.2779E-03     94.2699E-03
            3099            3674     96.1221E-03     99.1251E-03
            3099            3675     89.2161E-03     92.2195E-03
            3100            3657     91.2779E-03     94.2699E-03
            3100            3658     84.3720E-03     87.2881E-03
            3100            3675     89.2161E-03     92.2195E-03
            3100            3676     82.5472E-03     85.5849E-03
            3101            3658     84.3720E-03     87.2881E-03
            3101            3659     77.6160E-03     80.4902E-03
            3101            3676     82.5472E-03     85.5849E-03
            3101            3677     76.0499E-03     79.0956E-03
            3102            3659     77.6160E-03     80.4902E-03
            3102            3660     70.9659E-03     73.7904E-03
            3102            3677     76.0499E-03     79.0956E-03
            3102            3678     69.6215E-03     72.6849E-03
            3103            3660     70.9659E-03     73.7904E-03
            3103            3661     64.3624E-03     67.1592E-03
            3103            3678     69.6215E-03     72.6849E-03
            3103            3679     63.2487E-03     66.3091E-03
            3104            3661     64.3624E-03     67.1592E-03
            3104            3662     57.7981E-03     60.5645E-03
            3104            3679     63.2487E-03     66.3091E-03
            3104            3680     56.8923E-03     59.9458E-03
            3105            3662     57.7981E-03     60.5645E-03
            3105            3663     51.2459E-03     53.9941E-03
            3105            3680     56.8923E-03     59.9458E-03
            3105            3681     50.5575E-03     53.5837E-03
            3106            3663     51.2459E-03     53.9941E-03
            3106            3664     44.7091E-03     47.4416E-03
            3106            3681     50.5575E-03     53.5837E-03
            3106            3682     44.2327E-03     47.2175E-03
            3107            3664     44.7091E-03     47.4416E-03
            3107            3665     38.1733E-03     40.9002E-03
            3107            3682     44.2327E-03     47.2175E-03
            3107            3683     37.9318E-03     40.8540E-03
            3108            3665     38.1733E-03     40.9002E-03
            3108            3666     31.6378E-03     34.3934E-03
            3108            3683     37.9318E-03     40.8540E-03
            3108            3684     31.6596E-03     34.5019E-03
            3109            3666     31.6378E-03     34.3934E-03
            3109            3667     25.0987E-03     27.9178E-03
            3109            3684     31.6596E-03     34.5019E-03
            3109            3685     25.4338E-03     28.2109E-03
            3110            3667     25.0987E-03     27.9178E-03
            3110            3668     18.5022E-03     21.6064E-03
            3110            3685     25.4338E-03     28.2109E-03
            3110            3686     19.2743E-03     22.0770E-03
            3111            3668     18.5022E-03     21.6064E-03
            3111            3669     11.9889E-03     15.4928E-03
            3111            3686     19.2743E-03     22.0770E-03
            3111            3687     13.2089E-03     16.5410E-03
            3112            3669     11.9889E-03     15.4928E-03
            3112            3670     6.04316E-03     9.30729E-03
            3112            3687     13.2089E-03     16.5410E-03
            3112            3688     8.45852E-03     11.7856E-03
            3113             417     6.70993E-03     9.55199E-03
            3113             418     3.28842E-03     6.16121E-03
            3113            3670     6.04316E-03     9.30729E-03
            3113            3688     8.45852E-03     11.7856E-03
            3114             634     128.759E-03     131.524E-03
            3114             635     133.892E-03     135.984E-03
            3114            3671     121.155E-03     124.050E-03
            3114            3689     117.045E-03     119.602E-03
            3115            3671     121.155E-03     124.050E-03
            3115            3672     111.678E-03     114.650E-03
            3115            3689     117.045E-03     119.602E-03
            3115            3690     108.269E-03     110.815E-03
            3116            3672     111.678E-03     114.650E-03
            3116            3673     103.522E-03     106.484E-03
            3116            3690     108.269E-03     110.815E-03
            3116            3691     100.510E-03     103.196E-03
            3117            3673     103.522E-03     106.484E-03
            3117            3674     96.1221E-03     99.1251E-03
            3117            3691     100.510E-03     103.196E-03
            3117            3692     93.5574E-03     96.3996E-03
            3118            3674     96.1221E-03     99.1251E-03
            3118            3675     89.2161E-03     92.2195E-03
            3118            3692     93.5574E-03     96.3996E-03
            3118            3693     86.9553E-03     89.9633E-03
            3119            3675     89.2161E-03     92.2195E-03
            3119            3676     82.5472E-03     85.5849E-03
            3119            3693     86.9553E-03     89.9633E-03
            3119            3694     80.6205E-03     83.7601E-03
            3120            3676     82.5472E-03     85.5849E-03
            3120            3677     76.0499E-03     79.0956E-03
            3120            3694     80.6205E-03     83.7601E-03
            3120            3695     74.3976E-03     77.6452E-03
            3121            3677     76.0499E-03     79.0956E-03
            3121            3678     69.6215E-03     72.6849E-03
            3121            3695     74.3976E-03     77.6452E-03
            3121            3696     68.2587E-03     71.5756E-03
            3122            3678     69.6215E-03     72.6849E-03
            3122            3679     63.2487E-03     66.3091E-03
            3122            3696     68.2587E-03     71.5756E-03
            3122            3697     62.1469E-03     65.5067E-03
            3123            3679     63.2487E-03     66.3091E-03
            3123            3680     56.8923E-03     59.9458E-03
            3123            3697     62.1469E-03     65.5067E-03
            3123            3698     56.0619E-03     59.4296E-03
            3124            3680     56.8923E-03     59.9458E-03
            3124            3681     50.5575E-03     53.5837E-03
            3124            3698     56.0619E-03     59.4296E-03
            3124            3699     49.9907E-03     53.3343E-03
            3125            3681     50.5575E-03     53.5837E-03
            3125            3682     44.2327E-03     47.2175E-03
            3125            3699     49.9907E-03     53.3343E-03
            3125            3700     43.9495E-03     47.2269E-03
            3126            3682     44.2327E-03     47.2175E-03
            3126            3683     37.9318E-03     40.8540E-03
            3126            3700     43.9495E-03     47.2269E-03
            3126            3701     37.9581E-03     41.1146E-03
            3127            3683     37.9318E-03     40.8540E-03
            3127            3684     31.6596E-03     34.5019E-03
            3127            3701     37.9581E-03     41.1146E-03
            3127            3702     32.0506E-03     35.0185E-03
            3128            3684     31.6596E-03     34.5019E-03
            3128            3685     25.4338E-03     28.2109E-03
            3128            3702     32.0506E-03     35.0185E-03
            3128            3703     26.2988E-03     28.9914E-03
            3129            3685     25.4338E-03     28.2109E-03
            3129            3686     19.2743E-03     22.0770E-03
            3129            3703     26.2988E-03     28.9914E-03
            3129            3704     20.7804E-03     23.1411E-03
            3130            3686     19.2743E-03     22.0770E-03
            3130            3687     13.2089E-03     16.5410E-03
            3130            3704     20.7804E-03     23.1411E-03
            3130            3705     15.6822E-03     17.8928E-03
            3131            3687     13.2089E-03     16.5410E-03
            3131            3688     8.45852E-03     11.7856E-03
            3131            3705     15.6822E-03     17.8928E-03
            3131            3706     11.5141E-03     14.4378E-03
            3132             416     9.74756E-03     13.3675E-03
            3132             417     6.70993E-03     9.55199E-03
            3132            3688     8.45852E-03     11.7856E-03
            3132            3706     11.5141E-03     14.4378E-03
            3133             633     131.836E-03     132.300E-03
            3133             634     128.759E-03     131.524E-03
            3133            3689     117.045E-03     119.602E-03
            3133            3707     124.193E-03     124.571E-03
            3134            3689     117.045E-03     119.602E-03
            3134            3690     108.269E-03     110.815E-03
            3134            3707     124.193E-03     124.571E-03
            3134            3708     116.925E-03     117.743E-03
            3135            3690     108.269E-03     110.815E-03
            3135            3691     100.510E-03     103.196E-03
            3135            3708     116.925E-03     117.743E-03
            3135            3709     110.235E-03     111.360E-03
            3136            3691     100.510E-03     103.196E-03
            3136            3692     93.5574E-03     96.3996E-03
            3136            3709     110.235E-03     111.360E-03
            3136            3710     103.546E-03     105.076E-03
            3137            3692     93.5574E-03     96.3996E-03
            3137            3693     86.9553E-03     89.9633E-03
            3137            3710     103.546E-03     105.076E-03
            3137            3711     97.0144E-03     98.7716E-03
            3138            3693     86.9553E-03     89.9633E-03
            3138            3694     80.6205E-03     83.7601E-03
            3138            3711     97.0144E-03     98.7716E-03
            3138            3712     90.4386E-03     92.4272E-03
            3139            3694     80.6205E-03     83.7601E-03
            3139            3695     74.3976E-03     77.6452E-03
            3139            3712     90.4386E-03     92.4272E-03
            3139            3713     83.8953E-03     86.0000E-03
            3140            3695     74.3976E-03     77.6452E-03
            3140            3696     68.2587E-03     71.5756E-03
            3140            3713     83.8953E-03     86.0000E-03
            3140            3714     77.3082E-03     79.5282E-03
            3141            3696     68.2587E-03     71.5756E-03
            3141            3697     62.1469E-03     65.5067E-03
            3141            3714     77.3082E-03     79.5282E-03
            3141            3715     70.7207E-03     72.9895E-03
            3142            3697     62.1469E-03     65.5067E-03
            3142            3698     56.0619E-03     59.4296E-03
            3142            3715     70.7207E-03     72.9895E-03
            3142            3716     64.1106E-03     66.4282E-03
            3143            3698     56.0619E-03     59.4296E-03
            3143            3699     49.9907E-03     53.3343E-03
            3143            3716     64.1106E-03     66.4282E-03
            3143            3717     57.5172E-03     59.8380E-03
            3144            3699     49.9907E-03     53.3343E-03
            3144            3700     43.9495E-03     47.2269E-03
            3144            3717     57.5172E-03     59.8380E-03
            3144            3718     50.9551E-03     53.2619E-03
            3145            3700     43.9495E-03     47.2269E-03
            3145            3701     37.9581E-03     41.1146E-03
            3145            3718     50.9551E-03     53.2619E-03
            3145            3719     44.4834E-03     46.7110E-03
            3146            3701     37.9581E-03     41.1146E-03
            3146            3702     32.0506E-03     35.0185E-03
            3146            3719     44.4834E-03     46.7110E-03
            3146            3720     38.1633E-03     40.2403E-03
            3147            3702     32.0506E-03     35.0185E-03
            3147            3703     26.2988E-03     28.9914E-03
            3147            3720     38.1633E-03     40.2403E-03
            3147            3721     32.1232E-03     33.9258E-03
            3148            3703     26.2988E-03     28.9914E-03
            3148            3704     20.7804E-03     23.1411E-03
            3148            3721     32.1232E-03     33.9258E-03
            3148            3722     26.5225E-03     27.8884E-03
            3149            3704     20.7804E-03     23.1411E-03
            3149            3705     15.6822E-03     17.8928E-03
            3149            3722     26.5225E-03     27.8884E-03
            3149            3723     21.6287E-03     22.6899E-03
            3150            3705     15.6822E-03     17.8928E-03
            3150            3706     11.5141E-03     14.4378E-03
            3150            3723     21.6287E-03     22.6899E-03
            3150            3724     17.0927E-03     19.5709E-03
            3151             415     14.7800E-03     18.7243E-03
            3151             416     9.74756E-03     13.3675E-03
            3151            3706     11.5141E-03     14.4378E-03
            3151            3724     17.0927E-03     19.5709E-03
            3152             632     142.121E-03     141.923E-03
            3152             633     131.836E-03     132.300E-03
            3152            3707     124.193E-03     124.571E-03
            3152            3725     136.206E-03     136.163E-03
            3153            3707     124.193E-03     124.571E-03
            3153            3708     116.925E-03     117.743E-03
            3153            3725     136.206E-03     136.163E-03
            3153            3726     130.065E-03     130.202E-03
            3154            3708     116.925E-03     117.743E-03
            3154            3709     110.235E-03     111.360E-03
            3154            3726     130.065E-03     130.202E-03
            3154            3727     123.346E-03     123.794E-03
            3155            3709     110.235E-03     111.360E-03
            3155            3710     103.546E-03     105.076E-03
            3155            3727     123.346E-03     123.794E-03
            3155            3728     116.419E-03     117.104E-03
            3156            3710     103.546E-03     105.076E-03
            3156            3711     97.0144E-03     98.7716E-03
            3156            3728     116.419E-03     117.104E-03
            3156            3729     109.267E-03     110.130E-03
            3157            3711     97.0144E-03     98.7716E-03
            3157            3712     90.4386E-03     92.4272E-03
            3157            3729     109.267E-03     110.130E-03
            3157            3730     101.996E-03     103.007E-03
            3158            3712     90.4386E-03     92.4272E-03
            3158            3713     83.8953E-03     86.0000E-03
            3158            3730     101.996E-03     103.007E-03
            3158            3731     94.6478E-03     95.7437E-03
            3159            3713     83.8953E-03     86.0000E-03
            3159            3714     77.3082E-03     79.5282E-03
            3159            3731     94.6478E-03     95.7437E-03
            3159            3732     87.2352E-03     88.4077E-03
            3160            3714     77.3082E-03     79.5282E-03
            3160            3715     70.7207E-03     72.9895E-03
            3160            3732     87.2352E-03     88.4077E-03
            3160            3733     79.7949E-03     81.0136E-03
            3161            3715     70.7207E-03     72.9895E-03
            3161            3716     64.1106E-03     66.4282E-03
            3161            3733     79.7949E-03     81.0136E-03
            3161            3734     72.3326E-03     73.5959E-03
            3162            3716     64.1106E-03     66.4282E-03
            3162            3717     57.5172E-03     59.8380E-03
            3162            3734     72.3326E-03     73.5959E-03
            3162            3735     64.8852E-03     66.1782E-03
            3163            3717     57.5172E-03     59.8380E-03
            3163            3718     50.9551E-03     53.2619E-03
            3163            3735     64.8852E-03     66.1782E-03
            3163            3736     57.4731E-03     58.7865E-03
            3164            3718     50.9551E-03     53.2619E-03
            3164            3719     44.4834E-03     46.7110E-03
            3164            3736     57.4731E-03     58.7865E-03
            3164            3737     50.1541E-03     51.4653E-03
            3165            3719     44.4834E-03     46.7110E-03
            3165            3720     38.1633E-03     40.2403E-03
            3165            3737     50.1541E-03     51.4653E-03
            3165            3738     42.9855E-03     44.2559E-03
            3166            3720     38.1633E-03     40.2403E-03
            3166            3721     32.1232E-03     33.9258E-03
            3166            3738     42.9855E-03     44.2559E-03
            3166            3739     36.0845E-03     37.2826E-03
            3167            3721     32.1232E-03     33.9258E-03
            3167            3722     26.5225E-03     27.8884E-03
            3167            3739     36.0845E-03     37.2826E-03
            3167            3740     29.5830E-03     30.7546E-03
            3168            3722     26.5225E-03     27.8884E-03
            3168            3723     21.6287E-03     22.6899E-03
            3168            3740     29.5830E-03     30.7546E-03
            3168            3741     23.7067E-03     25.3383E-03
            3169            3723     21.6287E-03     22.6899E-03
            3169            3724     17.0927E-03     19.5709E-03
            3169            3741     23.7067E-03     25.3383E-03
            3169            3742     19.0809E-03     22.4432E-03
            3170             414     17.1865E-03     21.8364E-03
            3170             415     14.7800E-03     18.7243E-03
            3170            3724     17.0927E-03     19.5709E-03
            3170            3742     19.0809E-03     22.4432E-03
            3171             631     148.548E-03     150.558E-03
            3171             632     142.121E-03     141.923E-03
            3171            3725     136.206E-03     136.163E-03
            3171            3743     141.607E-03     143.551E-03
            3172            3725     136.206E-03     136.163E-03
            3172            3726     130.065E-03     130.202E-03
            3172            3743     141.607E-03     143.551E-03
            3172            3744     134.359E-03     136.132E-03
            3173            3726     130.065E-03     130.202E-03
            3173            3727     123.346E-03     123.794E-03
            3173            3744     134.359E-03     136.132E-03
            3173            3745     126.788E-03     128.393E-03
            3174            3727     123.346E-03     123.794E-03
            3174            3728     116.419E-03     117.104E-03
            3174            3745     126.788E-03     128.393E-03
            3174            3746     119.006E-03     120.551E-03
            3175            3728     116.419E-03     117.104E-03
            3175            3729     109.267E-03     110.130E-03
            3175            3746     119.006E-03     120.551E-03
            3175            3747     111.147E-03     112.691E-03
            3176            3729     109.267E-03     110.130E-03
            3176            3730     101.996E-03     103.007E-03
            3176            3747     111.147E-03     112.691E-03
            3176            3748     103.290E-03     104.837E-03
            3177            3730     101.996E-03     103.007E-03
            3177            3731     94.6478E-03     95.7437E-03
            3177            3748     103.290E-03     104.837E-03
            3177            3749     95.4292E-03     97.0034E-03
            3178            3731     94.6478E-03     95.7437E-03
            3178            3732     87.2352E-03     88.4077E-03
            3178            3749     95.4292E-03     97.0034E-03
            3178            3750     87.5940E-03     89.1846E-03
            3179            3732     87.2352E-03     88.4077E-03
            3179            3733     79.7949E-03     81.0136E-03
            3179            3750     87.5940E-03     89.1846E-03
            3179            3751     79.7724E-03     81.3850E-03
            3180            3733     79.7949E-03     81.0136E-03
            3180            3734     72.3326E-03     73.5959E-03
            3180            3751     79.7724E-03     81.3850E-03
            3180            3752     71.9786E-03     73.6020E-03
            3181            3734     72.3326E-03     73.5959E-03
            3181            3735     64.8852E-03     66.1782E-03
            3181            3752     71.9786E-03     73.6020E-03
            3181            3753     64.2114E-03     65.8430E-03
            3182            3735     64.8852E-03     66.1782E-03
            3182            3736     57.4731E-03     58.7865E-03
            3182            3753     64.2114E-03     65.8430E-03
            3182            3754     56.4857E-03     58.1194E-03
            3183            3736     57.4731E-03     58.7865E-03
            3183            3737     50.1541E-03     51.4653E-03
            3183            3754     56.4857E-03     58.1194E-03
            3183            3755     48.8162E-03     50.4528E-03
            3184            3737     50.1541E-03     51.4653E-03
            3184            3738     42.9855E-03     44.2559E-03
            3184            3755     48.8162E-03     50.4528E-03
            3184            3756     41.2246E-03     42.8981E-03
            3185            3738     42.9855E-03     44.2559E-03
            3185            3739     36.0845E-03     37.2826E-03
            3185            3756     41.2246E-03     42.8981E-03
            3185            3757     33.7710E-03     35.5346E-03
            3186            3739     36.0845E-03     37.2826E-03
            3186            3740     29.5830E-03     30.7546E-03
            3186            3757     33.7710E-03     35.5346E-03
            3186            3758     26.4859E-03     28.6154E-03
            3187            3740     29.5830E-03     30.7546E-03
            3187            3741     23.7067E-03     25.3383E-03
            3187            3758     26.4859E-03     28.6154E-03
            3187            3759     19.6736E-03     22.7965E-03
            3188            3741     23.7067E-03     25.3383E-03
            3188            3742     19.0809E-03     22.4432E-03
            3188            3759     19.6736E-03     22.7965E-03
            3188            3760     15.1177E-03     17.9939E-03
            3189             413     13.7677E-03     15.7158E-03
            3189             414     17.1865E-03     21.8364E-03
            3189            3742     19.0809E-03     22.4432E-03
            3189            3760     15.1177E-03     17.9939E-03
            3190             630     153.077E-03     156.109E-03
            3190             631     148.548E-03     150.558E-03
            3190            3743     141.607E-03     143.551E-03
            3190            3761     145.501E-03     148.637E-03
            3191            3743     141.607E-03     143.551E-03
            3191            3744     134.359E-03     136.132E-03
            3191            3761     145.501E-03     148.637E-03
            3191            3762     137.283E-03     140.184E-03
            3192            3744     134.359E-03     136.132E-03
            3192            3745     126.788E-03     128.393E-03
            3192            3762     137.283E-03     140.184E-03
            3192            3763     128.961E-03     131.510E-03
            3193            3745     126.788E-03     128.393E-03
            3193            3746     119.006E-03     120.551E-03
            3193            3763     128.961E-03     131.510E-03
            3193            3764     120.540E-03     122.900E-03
            3194            3746     119.006E-03     120.551E-03
            3194            3747     111.147E-03     112.691E-03
            3194            3764     120.540E-03     122.900E-03
            3194            3765     112.261E-03     114.454E-03
            3195            3747     111.147E-03     112.691E-03
            3195            3748     103.290E-03     104.837E-03
            3195            3765     112.261E-03     114.454E-03
            3195            3766     104.018E-03     106.129E-03
            3196            3748     103.290E-03     104.837E-03
            3196            3749     95.4292E-03     97.0034E-03
            3196            3766     104.018E-03     106.129E-03
            3196            3767     95.8609E-03     97.9205E-03
            3197            3749     95.4292E-03     97.0034E-03
            3197            3750     87.5940E-03     89.1846E-03
            3197            3767     95.8609E-03     97.9205E-03
            3197            3768     87.7510E-03     89.7896E-03
            3198            3750     87.5940E-03     89.1846E-03
            3198            3751     79.7724E-03     81.3850E-03
            3198            3768     87.7510E-03     89.7896E-03
            3198            3769     79.6944E-03     81.7184E-03
            3199            3751     79.7724E-03     81.3850E-03
            3199            3752     71.9786E-03     73.6020E-03
            3199            3769     79.6944E-03     81.7184E-03
            3199            3770     71.6768E-03     73.6932E-03
            3200            3752     71.9786E-03     73.6020E-03
            3200            3753     64.2114E-03     65.8430E-03
            3200            3770     71.6768E-03     73.6932E-03
            3200            3771     63.6958E-03     65.7034E-03
            3201            3753     64.2114E-03     65.8430E-03
            3201            3754     56.4857E-03     58.1194E-03
            3201            3771     63.6958E-03     65.7034E-03
            3201            3772     55.7471E-03     57.7554E-03
            3202            3754     56.4857E-03     58.1194E-03
            3202            3755     48.8162E-03     50.4528E-03
            3202            3772     55.7471E-03     57.7554E-03
            3202            3773     47.8246E-03     49.8559E-03
            3203            3755     48.8162E-03     50.4528E-03
            3203            3756     41.2246E-03     42.8981E-03
            3203            3773     47.8246E-03     49.8559E-03
            3203            3774     39.9231E-03     42.0532E-03
            3204            3756     41.2246E-03     42.8981E-03
            3204            3757     33.7710E-03     35.5346E-03
            3204            3774     39.9231E-03     42.0532E-03
            3204            3775     32.0421E-03     34.4092E-03
            3205            3757     33.7710E-03     35.5346E-03
            3205            3758     26.4859E-03     28.6154E-03
            3205            3775     32.0421E-03     34.4092E-03
            3205            3776     24.2162E-03     27.0955E-03
            3206            3758     26.4859E-03     28.6154E-03
            3206            3759     19.6736E-03     22.7965E-03
            3206            3776     24.2162E-03     27.0955E-03
            3206            3777     16.8345E-03     20.2105E-03
            3207            3759     19.6736E-03     22.7965E-03
            3207            3760     15.1177E-03     17.9939E-03
            3207            3777     16.8345E-03     20.2105E-03
            3207            3778     11.0474E-03     13.5755E-03
            3208             412     8.75642E-03     10.2898E-03
            3208             413     13.7677E-03     15.7158E-03
            3208            3760     15.1177E-03     17.9939E-03
            3208            3778     11.0474E-03     13.5755E-03
            3209             629     155.891E-03     159.679E-03
            3209             630     153.077E-03     156.109E-03
            3209            3761     145.501E-03     148.637E-03
            3209            3779     147.526E-03     151.202E-03
            3210            3761     145.501E-03     148.637E-03
            3210            3762     137.283E-03     140.184E-03
            3210            3779     147.526E-03     151.202E-03
            3210            3780     138.526E-03     141.935E-03
            3211            3762     137.283E-03     140.184E-03
            3211            3763     128.961E-03     131.510E-03
            3211            3780     138.526E-03     141.935E-03
            3211            3781     129.464E-03     132.718E-03
            3212            3763     128.961E-03     131.510E-03
            3212            3764     120.540E-03     122.900E-03
            3212            3781     129.464E-03     132.718E-03
            3212            3782     120.866E-03     123.803E-03
            3213            3764     120.540E-03     122.900E-03
            3213            3765     112.261E-03     114.454E-03
            3213            3782     120.866E-03     123.803E-03
            3213            3783     112.358E-03     115.107E-03
            3214            3765     112.261E-03     114.454E-03
            3214            3766     104.018E-03     106.129E-03
            3214            3783     112.358E-03     115.107E-03
            3214            3784     104.020E-03     106.630E-03
            3215            3766     104.018E-03     106.129E-03
            3215            3767     95.8609E-03     97.9205E-03
            3215            3784     104.020E-03     106.630E-03
            3215            3785     95.7533E-03     98.2842E-03
            3216            3767     95.8609E-03     97.9205E-03
            3216            3768     87.7510E-03     89.7896E-03
            3216            3785     95.7533E-03     98.2842E-03
            3216            3786     87.5605E-03     90.0422E-03
            3217            3768     87.7510E-03     89.7896E-03
            3217            3769     79.6944E-03     81.7184E-03
            3217            3786     87.5605E-03     90.0422E-03
            3217            3787     79.4158E-03     81.8680E-03
            3218            3769     79.6944E-03     81.7184E-03
            3218            3770     71.6768E-03     73.6932E-03
            3218            3787     79.4158E-03     81.8680E-03
            3218            3788     71.3123E-03     73.7407E-03
            3219            3770     71.6768E-03     73.6932E-03
            3219            3771     63.6958E-03     65.7034E-03
            3219            3788     71.3123E-03     73.7407E-03
            3219            3789     63.2406E-03     65.6532E-03
            3220            3771     63.6958E-03     65.7034E-03
            3220            3772     55.7471E-03     57.7554E-03
            3220            3789     63.2406E-03     65.6532E-03
            3220            3790     55.1888E-03     57.5943E-03
            3221            3772     55.7471E-03     57.7554E-03
            3221            3773     47.8246E-03     49.8559E-03
            3221            3790     55.1888E-03     57.5943E-03
            3221            3791     47.1449E-03     49.5855E-03
            3222            3773     47.8246E-03     49.8559E-03
            3222            3774     39.9231E-03     42.0532E-03
            3222            3791     47.1449E-03     49.5855E-03
            3222            3792     39.0951E-03     41.6286E-03
            3223            3774     39.9231E-03     42.0532E-03
            3223            3775     32.0421E-03     34.4092E-03
            3223            3792     39.0951E-03     41.6286E-03
            3223            3793     30.9859E-03     33.8157E-03
            3224            3775     32.0421E-03     34.4092E-03
            3224            3776     24.2162E-03     27.0955E-03
            3224            3793     30.9859E-03     33.8157E-03
            3224            3794     22.8813E-03     26.1992E-03
            3225            3776     24.2162E-03     27.0955E-03
            3225            3777     16.8345E-03     20.2105E-03
            3225            3794     22.8813E-03     26.1992E-03
            3225            3795     14.9918E-03     18.4407E-03
            3226            3777     16.8345E-03     20.2105E-03
            3226            3778     11.0474E-03     13.5755E-03
            3226            3795     14.9918E-03     18.4407E-03
            3226            3796     7.70935E-03     11.2609E-03
            3227             411     4.28783E-03     8.06518E-03
            3227             412     8.75642E-03     10.2898E-03
            3227            3778     11.0474E-03     13.5755E-03
            3227            3796     7.70935E-03     11.2609E-03
            3228             628     157.796E-03     161.026E-03
            3228             629     155.891E-03     159.679E-03
            3228            3779     147.526E-03     151.202E-03
            3228            3797     147.479E-03     151.115E-03
            3229            3779     147.526E-03     151.202E-03
            3229            3780     138.526E-03     141.935E-03
            3229            3797     147.479E-03     151.115E-03
            3229            3798     137.454E-03     141.241E-03
            3230            3780     138.526E-03     141.935E-03
            3230            3781     129.464E-03     132.718E-03
            3230            3798     137.454E-03     141.241E-03
            3230            3799     128.506E-03     132.027E-03
            3231            3781     129.464E-03     132.718E-03
            3231            3782     120.866E-03     123.803E-03
            3231            3799     128.506E-03     132.027E-03
            3231            3800     119.855E-03     123.173E-03
            3232            3782     120.866E-03     123.803E-03
            3232            3783     112.358E-03     115.107E-03
            3232            3800     119.855E-03     123.173E-03
            3232            3801     111.498E-03     114.642E-03
            3233            3783     112.358E-03     115.107E-03
            3233            3784     104.020E-03     106.630E-03
            3233            3801     111.498E-03     114.642E-03
            3233            3802     103.254E-03     106.285E-03
            3234            3784     104.020E-03     106.630E-03
            3234            3785     95.7533E-03     98.2842E-03
            3234            3802     103.254E-03     106.285E-03
            3234            3803     95.0939E-03     98.0550E-03
            3235            3785     95.7533E-03     98.2842E-03
            3235            3786     87.5605E-03     90.0422E-03
            3235            3803     95.0939E-03     98.0550E-03
            3235            3804     86.9806E-03     89.8972E-03
            3236            3786     87.5605E-03     90.0422E-03
            3236            3787     79.4158E-03     81.8680E-03
            3236            3804     86.9806E-03     89.8972E-03
            3236            3805     78.9018E-03     81.7854E-03
            3237            3787     79.4158E-03     81.8680E-03
            3237            3788     71.3123E-03     73.7407E-03
            3237            3805     78.9018E-03     81.7854E-03
            3237            3806     70.8483E-03     73.7059E-03
            3238            3788     71.3123E-03     73.7407E-03
            3238            3789     63.2406E-03     65.6532E-03
            3238            3806     70.8483E-03     73.7059E-03
            3238            3807     62.8129E-03     65.6441E-03
            3239            3789     63.2406E-03     65.6532E-03
            3239            3790     55.1888E-03     57.5943E-03
            3239            3807     62.8129E-03     65.6441E-03
            3239            3808     54.7903E-03     57.6062E-03
            3240            3790     55.1888E-03     57.5943E-03
            3240            3791     47.1449E-03     49.5855E-03
            3240            3808     54.7903E-03     57.6062E-03
            3240            3809     46.7704E-03     49.5867E-03
            3241            3791     47.1449E-03     49.5855E-03
            3241            3792     39.0951E-03     41.6286E-03
            3241            3809     46.7704E-03     49.5867E-03
            3241            3810     38.7343E-03     41.6193E-03
            3242            3792     39.0951E-03     41.6286E-03
            3242            3793     30.9859E-03     33.8157E-03
            3242            3810     38.7343E-03     41.6193E-03
            3242            3811     30.6771E-03     33.7211E-03
            3243            3793     30.9859E-03     33.8157E-03
            3243            3794     22.8813E-03     26.1992E-03
            3243            3811     30.6771E-03     33.7211E-03
            3243            3812     22.5542E-03     25.9458E-03
            3244            3794     22.8813E-03     26.1992E-03
            3244            3795     14.9918E-03     18.4407E-03
            3244            3812     22.5542E-03     25.9458E-03
            3244            3813     14.3803E-03     18.4678E-03
            3245            3795     14.9918E-03     18.4407E-03
            3245            3796     7.70935E-03     11.2609E-03
            3245            3813     14.3803E-03     18.4678E-03
            3245            3814     6.96466E-03     10.6770E-03
            3246             410     3.63489E-03     6.52555E-03
            3246             411     4.28783E-03     8.06518E-03
            3246            3796     7.70935E-03     11.2609E-03
            3246            3814     6.96466E-03     10.6770E-03
            3247             627     156.817E-03     159.688E-03
            3247             628     157.796E-03     161.026E-03
            3247            3797     147.479E-03     151.115E-03
            3247            3815     144.389E-03     148.048E-03
            3248            3797     147.479E-03     151.115E-03
            3248            3798     137.454E-03     141.241E-03
            3248            3815     144.389E-03     148.048E-03
            3248            3816     134.773E-03     138.452E-03
            3249            3798     137.454E-03     141.241E-03
            3249            3799     128.506E-03     132.027E-03
            3249            3816     134.773E-03     138.452E-03
            3249            3817     126.085E-03     129.633E-03
            3250            3799     128.506E-03     132.027E-03
            3250            3800     119.855E-03     123.173E-03
            3250            3817     126.085E-03     129.633E-03
            3250            3818     117.825E-03     121.309E-03
            3251            3800     119.855E-03     123.173E-03
            3251            3801     111.498E-03     114.642E-03
            3251            3818     117.825E-03     121.309E-03
            3251            3819     109.802E-03     113.224E-03
            3252            3801     111.498E-03     114.642E-03
            3252            3802     103.254E-03     106.285E-03
            3252            3819     109.802E-03     113.224E-03
            3252            3820     101.863E-03     105.253E-03
            3253            3802     103.254E-03     106.285E-03
            3253            3803     95.0939E-03     98.0550E-03
            3253            3820     101.863E-03     105.253E-03
            3253            3821     93.9707E-03     97.3357E-03
            3254            3803     95.0939E-03     98.0550E-03
            3254            3804     86.9806E-03     89.8972E-03
            3254            3821     93.9707E-03     97.3357E-03
            3254            3822     86.0880E-03     89.4303E-03
            3255            3804     86.9806E-03     89.8972E-03
            3255            3805     78.9018E-03     81.7854E-03
            3255            3822     86.0880E-03     89.4303E-03
            3255            3823     78.2089E-03     81.5305E-03
            3256            3805     78.9018E-03     81.7854E-03
            3256            3806     70.8483E-03     73.7059E-03
            3256            3823     78.2089E-03     81.5305E-03
            3256            3824     70.3298E-03     73.6233E-03
            3257            3806     70.8483E-03     73.7059E-03
            3257            3807     62.8129E-03     65.6441E-03
            3257            3824     70.3298E-03     73.6233E-03
            3257            3825     62.4517E-03     65.7158E-03
            3258            3807     62.8129E-03     65.6441E-03
            3258            3808     54.7903E-03     57.6062E-03
            3258            3825     62.4517E-03     65.7158E-03
            3258            3826     54.5802E-03     57.8065E-03
            3259            3808     54.7903E-03     57.6062E-03
            3259            3809     46.7704E-03     49.5867E-03
            3259            3826     54.5802E-03     57.8065E-03
            3259            3827     46.7196E-03     49.9071E-03
            3260            3809     46.7704E-03     49.5867E-03
            3260            3810     38.7343E-03     41.6193E-03
            3260            3827     46.7196E-03     49.9071E-03
            3260            3828     38.8774E-03     42.0355E-03
            3261            3810     38.7343E-03     41.6193E-03
            3261            3811     30.6771E-03     33.7211E-03
            3261            3828     38.8774E-03     42.0355E-03
            3261            3829     31.0779E-03     34.2078E-03
            3262            3811     30.6771E-03     33.7211E-03
            3262            3812     22.5542E-03     25.9458E-03
            3262            3829     31.0779E-03     34.2078E-03
            3262            3830     23.3044E-03     26.5398E-03
            3263            3812     22.5542E-03     25.9458E-03
            3263            3813     14.3803E-03     18.4678E-03
            3263            3830     23.3044E-03     26.5398E-03
            3263            3831     15.5731E-03     19.4553E-03
            3264            3813     14.3803E-03     18.4678E-03
            3264            3814     6.96466E-03     10.6770E-03
            3264            3831     15.5731E-03     19.4553E-03
            3264            3832     9.12831E-03     13.1715E-03
            3265             409     6.52661E-03     10.2079E-03
            3265             410     3.63489E-03     6.52555E-03
            3265            3814     6.96466E-03     10.6770E-03
            3265            3832     9.12831E-03     13.1715E-03
            3266             626     151.027E-03     154.089E-03
            3266             627     156.817E-03     159.688E-03
            3266            3815     144.389E-03     148.048E-03
            3266            3833     139.693E-03     142.766E-03
            3267            3815     144.389E-03     148.048E-03
            3267            3816     134.773E-03     138.452E-03
            3267            3833     139.693E-03     142.766E-03
            3267            3834     130.938E-03     134.098E-03
            3268            3816     134.773E-03     138.452E-03
            3268            3817     126.085E-03     129.633E-03
            3268            3834     130.938E-03     134.098E-03
            3268            3835     122.768E-03     126.166E-03
            3269            3817     126.085E-03     129.633E-03
            3269            3818     117.825E-03     121.309E-03
            3269            3835     122.768E-03     126.166E-03
            3269            3836     115.119E-03     118.675E-03
            3270            3818     117.825E-03     121.309E-03
            3270            3819     109.802E-03     113.224E-03
            3270            3836     115.119E-03     118.675E-03
            3270            3837     107.563E-03     111.239E-03
            3271            3819     109.802E-03     113.224E-03
            3271            3820     101.863E-03     105.253E-03
            3271            3837     107.563E-03     111.239E-03
            3271            3838     100.081E-03     103.829E-03
            3272            3820     101.863E-03     105.253E-03
            3272            3821     93.9707E-03     97.3357E-03
            3272            3838     100.081E-03     103.829E-03
            3272            3839     92.5778E-03     96.3489E-03
            3273            3821     93.9707E-03     97.3357E-03
            3273            3822     86.0880E-03     89.4303E-03
            3273            3839     92.5778E-03     96.3489E-03
            3273            3840     85.0468E-03     88.8235E-03
            3274            3822     86.0880E-03     89.4303E-03
            3274            3823     78.2089E-03     81.5305E-03
            3274            3840     85.0468E-03     88.8235E-03
            3274            3841     77.4784E-03     81.2359E-03
            3275            3823     78.2089E-03     81.5305E-03
            3275            3824     70.3298E-03     73.6233E-03
            3275            3841     77.4784E-03     81.2359E-03
            3275            3842     69.8763E-03     73.6112E-03
            3276            3824     70.3298E-03     73.6233E-03
            3276            3825     62.4517E-03     65.7158E-03
            3276            3842     69.8763E-03     73.6112E-03
            3276            3843     62.2581E-03     65.9556E-03
            3277            3825     62.4517E-03     65.7158E-03
            3277            3826     54.5802E-03     57.8065E-03
            3277            3843     62.2581E-03     65.9556E-03
            3277            3844     54.6371E-03     58.2859E-03
            3278            3826     54.5802E-03     57.8065E-03
            3278            3827     46.7196E-03     49.9071E-03
            3278            3844     54.6371E-03     58.2859E-03
            3278            3845     47.0513E-03     50.6220E-03
            3279            3827     46.7196E-03     49.9071E-03
            3279            3828     38.8774E-03     42.0355E-03
            3279            3845     47.0513E-03     50.6220E-03
            3279            3846     39.5407E-03     42.9710E-03
            3280            3828     38.8774E-03     42.0355E-03
            3280            3829     31.0779E-03     34.2078E-03
            3280            3846     39.5407E-03     42.9710E-03
            3280            3847     32.1787E-03     35.3952E-03
            3281            3829     31.0779E-03     34.2078E-03
            3281            3830     23.3044E-03     26.5398E-03
            3281            3847     32.1787E-03     35.3952E-03
            3281            3848     25.0803E-03     27.9839E-03
            3282            3830     23.3044E-03     26.5398E-03
            3282            3831     15.5731E-03     19.4553E-03
            3282            3848     25.0803E-03     27.9839E-03
            3282            3849     18.4573E-03     21.1394E-03
            3283            3831     15.5731E-03     19.4553E-03
            3283            3832     9.12831E-03     13.1715E-03
            3283            3849     18.4573E-03     21.1394E-03
            3283            3850     12.8742E-03     16.4172E-03
            3284             408     10.4394E-03     14.8760E-03
            3284             409     6.52661E-03     10.2079E-03
            3284            3832     9.12831E-03     13.1715E-03
            3284            3850     12.8742E-03     16.4172E-03
            3285              28     153.115E-03     153.447E-03
            3285             584     143.832E-03     144.060E-03
            3285             626     151.027E-03     154.089E-03
            3285            3833     139.693E-03     142.766E-03
            3286             584     143.832E-03     144.060E-03
            3286             585     135.301E-03     135.996E-03
            3286            3833     139.693E-03     142.766E-03
            3286            3834     130.938E-03     134.098E-03
            3287             585     135.301E-03     135.996E-03
            3287             586     127.387E-03     128.107E-03
            3287            3834     130.938E-03     134.098E-03
            3287            3835     122.768E-03     126.166E-03
            3288             586     127.387E-03     128.107E-03
            3288             587     119.398E-03     120.538E-03
            3288            3835     122.768E-03     126.166E-03
            3288            3836     115.119E-03     118.675E-03
            3289             587     119.398E-03     120.538E-03
            3289             588     111.668E-03     112.839E-03
            3289            3836     115.119E-03     118.675E-03
            3289            3837     107.563E-03     111.239E-03
            3290             588     111.668E-03     112.839E-03
            3290             589     103.820E-03     105.206E-03
            3290            3837     107.563E-03     111.239E-03
            3290            3838     100.081E-03     103.829E-03
            3291             589     103.820E-03     105.206E-03
            3291             590     96.0424E-03     97.4562E-03
            3291            3838     100.081E-03     103.829E-03
            3291            3839     92.5778E-03     96.3489E-03
            3292             590     96.0424E-03     97.4562E-03
            3292             591     88.1853E-03     89.7016E-03
            3292            3839     92.5778E-03     96.3489E-03
            3292            3840     85.0468E-03     88.8235E-03
            3293             591     88.1853E-03     89.7016E-03
            3293             592     80.3321E-03     81.8809E-03
            3293            3840     85.0468E-03     88.8235E-03
            3293            3841     77.4784E-03     81.2359E-03
            3294             592     80.3321E-03     81.8809E-03
            3294             593     72.4369E-03     74.0472E-03
            3294            3841     77.4784E-03     81.2359E-03
            3294            3842     69.8763E-03     73.6112E-03
            3295             593     72.4369E-03     74.0472E-03
            3295             594     64.5404E-03     66.1857E-03
            3295            3842     69.8763E-03     73.6112E-03
            3295            3843     62.2581E-03     65.9556E-03
            3296             594     64.5404E-03     66.1857E-03
            3296             595     56.6387E-03     58.3250E-03
            3296            3843     62.2581E-03     65.9556E-03
            3296            3844     54.6371E-03     58.2859E-03
            3297             595     56.6387E-03     58.3250E-03
            3297             596     48.7706E-03     50.4642E-03
            3297            3844     54.6371E-03     58.2859E-03
            3297            3845     47.0513E-03     50.6220E-03
            3298             596     48.7706E-03     50.4642E-03
            3298             597     40.9573E-03     42.6284E-03
            3298            3845     47.0513E-03     50.6220E-03
            3298            3846     39.5407E-03     42.9710E-03
            3299             597     40.9573E-03     42.6284E-03
            3299             598     33.2784E-03     34.8419E-03
            3299            3846     39.5407E-03     42.9710E-03
            3299            3847     32.1787E-03     35.3952E-03
            3300             598     33.2784E-03     34.8419E-03
            3300             599     25.8158E-03     27.1549E-03
            3300            3847     32.1787E-03     35.3952E-03
            3300            3848     25.0803E-03     27.9839E-03
            3301             599     25.8158E-03     27.1549E-03
            3301             600     18.7680E-03     19.8336E-03
            3301            3848     25.0803E-03     27.9839E-03
            3301            3849     18.4573E-03     21.1394E-03
            3302             600     18.7680E-03     19.8336E-03
            3302             601     12.2562E-03     13.6045E-03
            3302            3849     18.4573E-03     21.1394E-03
            3302            3850     12.8742E-03     16.4172E-03
            3303              22     9.11713E-03     10.8966E-03
            3303             408     10.4394E-03     14.8760E-03
            3303             601     12.2562E-03     13.6045E-03
            3303            3850     12.8742E-03     16.4172E-03
            3304              30     8.86073E-03     11.8484E-03
            3304             673     11.9976E-03     14.9161E-03
            3304             720     5.66481E-03     10.7062E-03
            3304            3851     9.41248E-03     13.7413E-03
            3305             673     11.9976E-03     14.9161E-03
            3305             674     18.8319E-03     22.1626E-03
            3305            3851     9.41248E-03     13.7413E-03
            3305            3852     17.1599E-03     20.9609E-03
            3306             674     18.8319E-03     22.1626E-03
            3306             675     26.6181E-03     30.6606E-03
            3306            3852     17.1599E-03     20.9609E-03
            3306            3853     25.3571E-03     29.5606E-03
            3307             675     26.6181E-03     30.6606E-03
            3307             676     34.9635E-03     39.3570E-03
            3307            3853     25.3571E-03     29.5606E-03
            3307            3854     33.8296E-03     38.3221E-03
            3308             676     34.9635E-03     39.3570E-03
            3308             677     43.5622E-03     48.1024E-03
            3308            3854     33.8296E-03     38.3221E-03
            3308            3855     42.4571E-03     47.0496E-03
            3309             677     43.5622E-03     48.1024E-03
            3309             678     52.2845E-03     56.8757E-03
            3309            3855     42.4571E-03     47.0496E-03
            3309            3856     51.1576E-03     55.8081E-03
            3310             678     52.2845E-03     56.8757E-03
            3310             679     61.0418E-03     65.6882E-03
            3310            3856     51.1576E-03     55.8081E-03
            3310            3857     59.8739E-03     64.5700E-03
            3311             679     61.0418E-03     65.6882E-03
            3311             680     69.8170E-03     74.5107E-03
            3311            3857     59.8739E-03     64.5700E-03
            3311            3858     68.6013E-03     73.3309E-03
            3312             680     69.8170E-03     74.5107E-03
            3312             681     78.5696E-03     83.3355E-03
            3312            3858     68.6013E-03     73.3309E-03
            3312            3859     77.3142E-03     82.0880E-03
            3313             681     78.5696E-03     83.3355E-03
            3313             682     87.3149E-03     92.1343E-03
            3313            3859     77.3142E-03     82.0880E-03
            3313            3860     86.0101E-03     90.8203E-03
            3314             682     87.3149E-03     92.1343E-03
            3314             683     95.9922E-03     100.898E-03
            3314            3860     86.0101E-03     90.8203E-03
            3314            3861     94.6706E-03     99.5310E-03
            3315             683     95.9922E-03     100.898E-03
            3315             684     104.640E-03     109.591E-03
            3315            3861     94.6706E-03     99.5310E-03
            3315            3862     103.291E-03     108.184E-03
            3316             684     104.640E-03     109.591E-03
            3316             685     113.153E-03     118.198E-03
            3316            3862     103.291E-03     108.184E-03
            3316            3863     111.854E-03     116.792E-03
            3317             685     113.153E-03     118.198E-03
            3317             686     121.621E-03     126.666E-03
            3317            3863     111.854E-03     116.792E-03
            3317            3864     120.352E-03     125.300E-03
            3318             686     121.621E-03     126.666E-03
            3318             687     129.867E-03     134.974E-03
            3318            3864     120.352E-03     125.300E-03
            3318            3865     128.814E-03     133.762E-03
            3319             687     129.867E-03     134.974E-03
            3319             688     138.169E-03     143.080E-03
            3319            3865     128.814E-03     133.762E-03
            3319            3866     137.239E-03     142.136E-03
            3320             688     138.169E-03     143.080E-03
            3320             689     146.219E-03     151.056E-03
            3320            3866     137.239E-03     142.136E-03
            3320            3867     145.963E-03     150.735E-03
            3321             689     146.219E-03     151.056E-03
            3321             690     154.979E-03     159.285E-03
            3321            3867     145.963E-03     150.735E-03
            3321            3868     155.008E-03     159.767E-03
            3322              31     164.106E-03     168.518E-03
            3322             690     154.979E-03     159.285E-03
            3322             691     166.644E-03     171.250E-03
            3322            3868     155.008E-03     159.767E-03
            3323             719     3.18435E-03     8.92951E-03
            3323             720     5.66481E-03     10.7062E-03
            3323            3851     9.41248E-03     13.7413E-03
            3323            3869     7.40232E-03     12.3475E-03
            3324            3851     9.41248E-03     13.7413E-03
            3324            3852     17.1599E-03     20.9609E-03
            3324            3869     7.40232E-03     12.3475E-03
            3324            3870     16.0569E-03     20.0223E-03
            3325            3852     17.1599E-03     20.9609E-03
            3325            3853     25.3571E-03     29.5606E-03
            3325            3870     16.0569E-03     20.0223E-03
            3325            3871     24.9151E-03     28.6345E-03
            3326            3853     25.3571E-03     29.5606E-03
            3326            3854     33.8296E-03     38.3221E-03
            3326            3871     24.9151E-03     28.6345E-03
            3326            3872     33.7532E-03     37.3702E-03
            3327            3854     33.8296E-03     38.3221E-03
            3327            3855     42.4571E-03     47.0496E-03
            3327            3872     33.7532E-03     37.3702E-03
            3327            3873     42.5817E-03     46.1871E-03
            3328            3855     42.4571E-03     47.0496E-03
            3328            3856     51.1576E-03     55.8081E-03
            3328            3873     42.5817E-03     46.1871E-03
            3328            3874     51.4017E-03     55.0544E-03
            3329            3856     51.1576E-03     55.8081E-03
            3329            3857     59.8739E-03     64.5700E-03
            3329            3874     51.4017E-03     55.0544E-03
            3329            3875     60.2257E-03     63.9196E-03
            3330            3857     59.8739E-03     64.5700E-03
            3330            3858     68.6013E-03     73.3309E-03
            3330            3875     60.2257E-03     63.9196E-03
            3330            3876     69.0586E-03     72.7929E-03
            3331            3858     68.6013E-03     73.3309E-03
            3331            3859     77.3142E-03     82.0880E-03
            3331            3876     69.0586E-03     72.7929E-03
            3331            3877     77.9017E-03     81.6604E-03
            3332            3859     77.3142E-03     82.0880E-03
            3332            3860     86.0101E-03     90.8203E-03
            3332            3877     77.9017E-03     81.6604E-03
            3332            3878     86.7505E-03     90.5362E-03
            3333            3860     86.0101E-03     90.8203E-03
            3333            3861     94.6706E-03     99.5310E-03
            3333            3878     86.7505E-03     90.5362E-03
            3333            3879     95.6095E-03     99.4093E-03
            3334            3861     94.6706E-03     99.5310E-03
            3334            3862     103.291E-03     108.184E-03
            3334            3879     95.6095E-03     99.4093E-03
            3334            3880     104.476E-03     108.300E-03
            3335            3862     103.291E-03     108.184E-03
            3335            3863     111.854E-03     116.792E-03
            3335            3880     104.476E-03     108.300E-03
            3335            3881     113.356E-03     117.195E-03
            3336            3863     111.854E-03     116.792E-03
            3336            3864     120.352E-03     125.300E-03
            3336            3881     113.356E-03     117.195E-03
            3336            3882     122.258E-03     126.134E-03
            3337            3864     120.352E-03     125.300E-03
            3337            3865     128.814E-03     133.762E-03
            3337            3882     122.258E-03     126.134E-03
            3337            3883     131.196E-03     135.140E-03
            3338            3865     128.814E-03     133.762E-03
            3338            3866     137.239E-03     142.136E-03
            3338            3883     131.196E-03     135.140E-03
            3338            3884     140.237E-03     144.306E-03
            3339            3866     137.239E-03     142.136E-03
            3339            3867     145.963E-03     150.735E-03
            3339            3884     140.237E-03     144.306E-03
            3339            3885     149.582E-03     153.870E-03
            3340            3867     145.963E-03     150.735E-03
            3340            3868     155.008E-03     159.767E-03
            3340            3885     149.582E-03     153.870E-03
            3340            3886     159.526E-03     164.059E-03
            3341             691     166.644E-03     171.250E-03
            3341             692     172.291E-03     176.178E-03
            3341            3868     155.008E-03     159.767E-03
            3341            3886     159.526E-03     164.059E-03
            3342             718     6.36190E-03     8.11483E-03
            3342             719     3.18435E-03     8.92951E-03
            3342            3869     7.40232E-03     12.3475E-03
            3342            3887     9.54765E-03     12.5472E-03
            3343            3869     7.40232E-03     12.3475E-03
            3343            3870     16.0569E-03     20.0223E-03
            3343            3887     9.54765E-03     12.5472E-03
            3343            3888     17.0128E-03     20.8591E-03
            3344            3870     16.0569E-03     20.0223E-03
            3344            3871     24.9151E-03     28.6345E-03
            3344            3888     17.0128E-03     20.8591E-03
            3344            3889     25.7404E-03     28.8222E-03
            3345            3871     24.9151E-03     28.6345E-03
            3345            3872     33.7532E-03     37.3702E-03
            3345            3889     25.7404E-03     28.8222E-03
            3345            3890     34.6011E-03     37.2745E-03
            3346            3872     33.7532E-03     37.3702E-03
            3346            3873     42.5817E-03     46.1871E-03
            3346            3890     34.6011E-03     37.2745E-03
            3346            3891     43.3923E-03     46.0269E-03
            3347            3873     42.5817E-03     46.1871E-03
            3347            3874     51.4017E-03     55.0544E-03
            3347            3891     43.3923E-03     46.0269E-03
            3347            3892     52.1787E-03     54.8332E-03
            3348            3874     51.4017E-03     55.0544E-03
            3348            3875     60.2257E-03     63.9196E-03
            3348            3892     52.1787E-03     54.8332E-03
            3348            3893     60.9904E-03     63.6828E-03
            3349            3875     60.2257E-03     63.9196E-03
            3349            3876     69.0586E-03     72.7929E-03
            3349            3893     60.9904E-03     63.6828E-03
            3349            3894     69.8207E-03     72.5392E-03
            3350            3876     69.0586E-03     72.7929E-03
            3350            3877     77.9017E-03     81.6604E-03
            3350            3894     69.8207E-03     72.5392E-03
            3350            3895     78.6750E-03     81.4124E-03
            3351            3877     77.9017E-03     81.6604E-03
            3351            3878     86.7505E-03     90.5362E-03
            3351            3895     78.6750E-03     81.4124E-03
            3351            3896     87.5556E-03     90.2957E-03
            3352            3878     86.7505E-03     90.5362E-03
            3352            3879     95.6095E-03     99.4093E-03
            3352            3896     87.5556E-03     90.2957E-03
            3352            3897     96.4610E-03     99.2067E-03
            3353            3879     95.6095E-03     99.4093E-03
            3353            3880     104.476E-03     108.300E-03
            3353            3897     96.4610E-03     99.2067E-03
            3353            3898     105.405E-03     108.146E-03
            3354            3880     104.476E-03     108.300E-03
            3354            3881     113.356E-03     117.195E-03
            3354            3898     105.405E-03     108.146E-03
            3354            3899     114.391E-03     117.145E-03
            3355            3881     113.356E-03     117.195E-03
            3355            3882     122.258E-03     126.134E-03
            3355            3899     114.391E-03     117.145E-03
            3355            3900     123.447E-03     126.229E-03
            3356            3882     122.258E-03     126.134E-03
            3356            3883     131.196E-03     135.140E-03
            3356            3900     123.447E-03     126.229E-03
            3356            3901     132.573E-03     135.446E-03
            3357            3883     131.196E-03     135.140E-03
            3357            3884     140.237E-03     144.306E-03
            3357            3901     132.573E-03     135.446E-03
            3357            3902     141.893E-03     144.939E-03
            3358            3884     140.237E-03     144.306E-03
            3358            3885     149.582E-03     153.870E-03
            3358            3902     141.893E-03     144.939E-03
            3358            3903     151.311E-03     154.720E-03
            3359            3885     149.582E-03     153.870E-03
            3359            3886     159.526E-03     164.059E-03
            3359            3903     151.311E-03     154.720E-03
            3359            3904     161.780E-03     165.213E-03
            3360             692     172.291E-03     176.178E-03
            3360             693     172.062E-03     175.569E-03
            3360            3886     159.526E-03     164.059E-03
            3360            3904     161.780E-03     165.213E-03
            3361             717     11.6383E-03     13.7262E-03
            3361             718     6.36190E-03     8.11483E-03
            3361            3887     9.54765E-03     12.5472E-03
            3361            3905     13.7485E-03     16.5678E-03
            3362            3887     9.54765E-03     12.5472E-03
            3362            3888     17.0128E-03     20.8591E-03
            3362            3905     13.7485E-03     16.5678E-03
            3362            3906     19.7670E-03     22.6974E-03
            3363            3888     17.0128E-03     20.8591E-03
            3363            3889     25.7404E-03     28.8222E-03
            3363            3906     19.7670E-03     22.6974E-03
            3363            3907     27.8773E-03     29.9267E-03
            3364            3889     25.7404E-03     28.8222E-03
            3364            3890     34.6011E-03     37.2745E-03
            3364            3907     27.8773E-03     29.9267E-03
            3364            3908     36.3114E-03     38.0543E-03
            3365            3890     34.6011E-03     37.2745E-03
            3365            3891     43.3923E-03     46.0269E-03
            3365            3908     36.3114E-03     38.0543E-03
            3365            3909     44.8397E-03     46.5332E-03
            3366            3891     43.3923E-03     46.0269E-03
            3366            3892     52.1787E-03     54.8332E-03
            3366            3909     44.8397E-03     46.5332E-03
            3366            3910     53.4538E-03     55.1583E-03
            3367            3892     52.1787E-03     54.8332E-03
            3367            3893     60.9904E-03     63.6828E-03
            3367            3910     53.4538E-03     55.1583E-03
            3367            3911     62.1250E-03     63.8457E-03
            3368            3893     60.9904E-03     63.6828E-03
            3368            3894     69.8207E-03     72.5392E-03
            3368            3911     62.1250E-03     63.8457E-03
            3368            3912     70.8426E-03     72.5699E-03
            3369            3894     69.8207E-03     72.5392E-03
            3369            3895     78.6750E-03     81.4124E-03
            3369            3912     70.8426E-03     72.5699E-03
            3369            3913     79.5942E-03     81.3136E-03
            3370            3895     78.6750E-03     81.4124E-03
            3370            3896     87.5556E-03     90.2957E-03
            3370            3913     79.5942E-03     81.3136E-03
            3370            3914     88.3670E-03     90.0774E-03
            3371            3896     87.5556E-03     90.2957E-03
            3371            3897     96.4610E-03     99.2067E-03
            3371            3914     88.3670E-03     90.0774E-03
            3371            3915     97.1667E-03     98.8545E-03
            3372            3897     96.4610E-03     99.2067E-03
            3372            3898     105.405E-03     108.146E-03
            3372            3915     97.1667E-03     98.8545E-03
            3372            3916     105.982E-03     107.657E-03
            3373            3898     105.405E-03     108.146E-03
            3373            3899     114.391E-03     117.145E-03
            3373            3916     105.982E-03     107.657E-03
            3373            3917     114.839E-03     116.488E-03
            3374            3899     114.391E-03     117.145E-03
            3374            3900     123.447E-03     126.229E-03
            3374            3917     114.839E-03     116.488E-03
            3374            3918     123.720E-03     125.376E-03
            3375            3900     123.447E-03     126.229E-03
            3375            3901     132.573E-03     135.446E-03
            3375            3918     123.720E-03     125.376E-03
            3375            3919     132.691E-03     134.351E-03
            3376            3901     132.573E-03     135.446E-03
            3376            3902     141.893E-03     144.939E-03
            3376            3919     132.691E-03     134.351E-03
            3376            3920     141.667E-03     143.430E-03
            3377            3902     141.893E-03     144.939E-03
            3377            3903     151.311E-03     154.720E-03
            3377            3920     141.667E-03     143.430E-03
            3377            3921     150.833E-03     152.702E-03
            3378            3903     151.311E-03     154.720E-03
            3378            3904     161.780E-03     165.213E-03
            3378            3921     150.833E-03     152.702E-03
            3378            3922     159.715E-03     161.937E-03
            3379             693     172.062E-03     175.569E-03
            3379             694     167.799E-03     170.486E-03
            3379            3904     161.780E-03     165.213E-03
            3379            3922     159.715E-03     161.937E-03
            3380             716     15.7263E-03     20.1136E-03
            3380             717     11.6383E-03     13.7262E-03
            3380            3905     13.7485E-03     16.5678E-03
            3380            3923     18.1441E-03     21.1859E-03
            3381            3905     13.7485E-03     16.5678E-03
            3381            3906     19.7670E-03     22.6974E-03
            3381            3923     18.1441E-03     21.1859E-03
            3381            3924     23.9075E-03     25.2179E-03
            3382            3906     19.7670E-03     22.6974E-03
            3382            3907     27.8773E-03     29.9267E-03
            3382            3924     23.9075E-03     25.2179E-03
            3382            3925     31.0279E-03     31.9417E-03
            3383            3907     27.8773E-03     29.9267E-03
            3383            3908     36.3114E-03     38.0543E-03
            3383            3925     31.0279E-03     31.9417E-03
            3383            3926     38.7720E-03     39.6647E-03
            3384            3908     36.3114E-03     38.0543E-03
            3384            3909     44.8397E-03     46.5332E-03
            3384            3926     38.7720E-03     39.6647E-03
            3384            3927     46.8727E-03     47.7424E-03
            3385            3909     44.8397E-03     46.5332E-03
            3385            3910     53.4538E-03     55.1583E-03
            3385            3927     46.8727E-03     47.7424E-03
            3385            3928     55.1976E-03     56.0414E-03
            3386            3910     53.4538E-03     55.1583E-03
            3386            3911     62.1250E-03     63.8457E-03
            3386            3928     55.1976E-03     56.0414E-03
            3386            3929     63.6363E-03     64.4447E-03
            3387            3911     62.1250E-03     63.8457E-03
            3387            3912     70.8426E-03     72.5699E-03
            3387            3929     63.6363E-03     64.4447E-03
            3387            3930     72.1500E-03     72.9172E-03
            3388            3912     70.8426E-03     72.5699E-03
            3388            3913     79.5942E-03     81.3136E-03
            3388            3930     72.1500E-03     72.9172E-03
            3388            3931     80.6920E-03     81.4232E-03
            3389            3913     79.5942E-03     81.3136E-03
            3389            3914     88.3670E-03     90.0774E-03
            3389            3931     80.6920E-03     81.4232E-03
            3389            3932     89.2497E-03     89.9386E-03
            3390            3914     88.3670E-03     90.0774E-03
            3390            3915     97.1667E-03     98.8545E-03
            3390            3932     89.2497E-03     89.9386E-03
            3390            3933     97.7881E-03     98.4462E-03
            3391            3915     97.1667E-03     98.8545E-03
            3391            3916     105.982E-03     107.657E-03
            3391            3933     97.7881E-03     98.4462E-03
            3391            3934     106.313E-03     106.921E-03
            3392            3916     105.982E-03     107.657E-03
            3392            3917     114.839E-03     116.488E-03
            3392            3934     106.313E-03     106.921E-03
            3392            3935     114.776E-03     115.353E-03
            3393            3917     114.839E-03     116.488E-03
            3393            3918     123.720E-03     125.376E-03
            3393            3935     114.776E-03     115.353E-03
            3393            3936     123.209E-03     123.701E-03
            3394            3918     123.720E-03     125.376E-03
            3394            3919     132.691E-03     134.351E-03
            3394            3936     123.209E-03     123.701E-03
            3394            3937     131.526E-03     131.960E-03
            3395            3919     132.691E-03     134.351E-03
            3395            3920     141.667E-03     143.430E-03
            3395            3937     131.526E-03     131.960E-03
            3395            3938     139.744E-03     140.005E-03
            3396            3920     141.667E-03     143.430E-03
            3396            3921     150.833E-03     152.702E-03
            3396            3938     139.744E-03     140.005E-03
            3396            3939     147.692E-03     147.786E-03
            3397            3921     150.833E-03     152.702E-03
            3397            3922     159.715E-03     161.937E-03
            3397            3939     147.692E-03     147.786E-03
            3397            3940     154.821E-03     154.864E-03
            3398             694     167.799E-03     170.486E-03
            3398             695     161.144E-03     160.982E-03
            3398            3922     159.715E-03     161.937E-03
            3398            3940     154.821E-03     154.864E-03
            3399             715     10.1892E-03     13.3288E-03
            3399             716     15.7263E-03     20.1136E-03
            3399            3923     18.1441E-03     21.1859E-03
            3399            3941     13.5404E-03     15.8500E-03
            3400            3923     18.1441E-03     21.1859E-03
            3400            3924     23.9075E-03     25.2179E-03
            3400            3941     13.5404E-03     15.8500E-03
            3400            3942     20.2817E-03     21.6911E-03
            3401            3924     23.9075E-03     25.2179E-03
            3401            3925     31.0279E-03     31.9417E-03
            3401            3942     20.2817E-03     21.6911E-03
            3401            3943     27.3672E-03     28.7525E-03
            3402            3925     31.0279E-03     31.9417E-03
            3402            3926     38.7720E-03     39.6647E-03
            3402            3943     27.3672E-03     28.7525E-03
            3402            3944     34.8972E-03     36.3486E-03
            3403            3926     38.7720E-03     39.6647E-03
            3403            3927     46.8727E-03     47.7424E-03
            3403            3944     34.8972E-03     36.3486E-03
            3403            3945     42.6721E-03     44.1255E-03
            3404            3927     46.8727E-03     47.7424E-03
            3404            3928     55.1976E-03     56.0414E-03
            3404            3945     42.6721E-03     44.1255E-03
            3404            3946     50.5980E-03     52.0171E-03
            3405            3928     55.1976E-03     56.0414E-03
            3405            3929     63.6363E-03     64.4447E-03
            3405            3946     50.5980E-03     52.0171E-03
            3405            3947     58.5989E-03     59.9865E-03
            3406            3929     63.6363E-03     64.4447E-03
            3406            3930     72.1500E-03     72.9172E-03
            3406            3947     58.5989E-03     59.9865E-03
            3406            3948     66.6434E-03     67.9900E-03
            3407            3930     72.1500E-03     72.9172E-03
            3407            3931     80.6920E-03     81.4232E-03
            3407            3948     66.6434E-03     67.9900E-03
            3407            3949     74.6994E-03     76.0252E-03
            3408            3931     80.6920E-03     81.4232E-03
            3408            3932     89.2497E-03     89.9386E-03
            3408            3949     74.6994E-03     76.0252E-03
            3408            3950     82.7610E-03     84.0496E-03
            3409            3932     89.2497E-03     89.9386E-03
            3409            3933     97.7881E-03     98.4462E-03
            3409            3950     82.7610E-03     84.0496E-03
            3409            3951     90.7985E-03     92.0775E-03
            3410            3933     97.7881E-03     98.4462E-03
            3410            3934     106.313E-03     106.921E-03
            3410            3951     90.7985E-03     92.0775E-03
            3410            3952     98.8157E-03     100.052E-03
            3411            3934     106.313E-03     106.921E-03
            3411            3935     114.776E-03     115.353E-03
            3411            3952     98.8157E-03     100.052E-03
            3411            3953     106.775E-03     108.003E-03
            3412            3935     114.776E-03     115.353E-03
            3412            3936     123.209E-03     123.701E-03
            3412            3953     106.775E-03     108.003E-03
            3412            3954     114.684E-03     115.843E-03
            3413            3936     123.209E-03     123.701E-03
            3413            3937     131.526E-03     131.960E-03
            3413            3954     114.684E-03     115.843E-03
            3413            3955     122.486E-03     123.592E-03
            3414            3937     131.526E-03     131.960E-03
            3414            3938     139.744E-03     140.005E-03
            3414            3955     122.486E-03     123.592E-03
            3414            3956     130.183E-03     131.145E-03
            3415            3938     139.744E-03     140.005E-03
            3415            3939     147.692E-03     147.786E-03
            3415            3956     130.183E-03     131.145E-03
            3415            3957     137.578E-03     138.371E-03
            3416            3939     147.692E-03     147.786E-03
            3416            3940     154.821E-03     154.864E-03
            3416            3957     137.578E-03     138.371E-03
            3416            3958     144.715E-03     145.170E-03
            3417             695     161.144E-03     160.982E-03
            3417             696     151.085E-03     151.324E-03
            3417            3940     154.821E-03     154.864E-03
            3417            3958     144.715E-03     145.170E-03
            3418              33     6.20063E-03     8.77959E-03
            3418             714     9.18624E-03     11.5301E-03
            3418             715     10.1892E-03     13.3288E-03
            3418            3941     13.5404E-03     15.8500E-03
            3419             713     15.3331E-03     17.6579E-03
            3419             714     9.18624E-03     11.5301E-03
            3419            3941     13.5404E-03     15.8500E-03
            3419            3942     20.2817E-03     21.6911E-03
            3420             712     21.8571E-03     24.5716E-03
            3420             713     15.3331E-03     17.6579E-03
            3420            3942     20.2817E-03     21.6911E-03
            3420            3943     27.3672E-03     28.7525E-03
            3421             711     28.6733E-03     31.6868E-03
            3421             712     21.8571E-03     24.5716E-03
            3421            3943     27.3672E-03     28.7525E-03
            3421            3944     34.8972E-03     36.3486E-03
            3422             710     35.6401E-03     38.8436E-03
            3422             711     28.6733E-03     31.6868E-03
            3422            3944     34.8972E-03     36.3486E-03
            3422            3945     42.6721E-03     44.1255E-03
            3423             709     42.6972E-03     46.0105E-03
            3423             710     35.6401E-03     38.8436E-03
            3423            3945     42.6721E-03     44.1255E-03
            3423            3946     50.5980E-03     52.0171E-03
            3424             708     49.7916E-03     53.1724E-03
            3424             709     42.6972E-03     46.0105E-03
            3424            3946     50.5980E-03     52.0171E-03
            3424            3947     58.5989E-03     59.9865E-03
            3425             707     56.9103E-03     60.3191E-03
            3425             708     49.7916E-03     53.1724E-03
            3425            3947     58.5989E-03     59.9865E-03
            3425            3948     66.6434E-03     67.9900E-03
            3426             706     64.0273E-03     67.4510E-03
            3426             707     56.9103E-03     60.3191E-03
            3426            3948     66.6434E-03     67.9900E-03
            3426            3949     74.6994E-03     76.0252E-03
            3427             705     71.1476E-03     74.5589E-03
            3427             706     64.0273E-03     67.4510E-03
            3427            3949     74.6994E-03     76.0252E-03
            3427            3950     82.7610E-03     84.0496E-03
            3428             704     78.2538E-03     81.6505E-03
            3428             705     71.1476E-03     74.5589E-03
            3428            3950     82.7610E-03     84.0496E-03
            3428            3951     90.7985E-03     92.0775E-03
            3429             703     85.3758E-03     88.7186E-03
            3429             704     78.2538E-03     81.6505E-03
            3429            3951     90.7985E-03     92.0775E-03
            3429            3952     98.8157E-03     100.052E-03
            3430             702     92.4980E-03     95.7886E-03
            3430             703     85.3758E-03     88.7186E-03
            3430            3952     98.8157E-03     100.052E-03
            3430            3953     106.775E-03     108.003E-03
            3431             701     99.7003E-03     102.870E-03
            3431             702     92.4980E-03     95.7886E-03
            3431            3953     106.775E-03     108.003E-03
            3431            3954     114.684E-03     115.843E-03
            3432             700     106.966E-03     110.037E-03
            3432             701     99.7003E-03     102.870E-03
            3432            3954     114.684E-03     115.843E-03
            3432            3955     122.486E-03     123.592E-03
            3433             699     114.495E-03     117.366E-03
            3433             700     106.966E-03     110.037E-03
            3433            3955     122.486E-03     123.592E-03
            3433            3956     130.183E-03     131.145E-03
            3434             698     122.271E-03     125.062E-03
            3434             699     114.495E-03     117.366E-03
            3434            3956     130.183E-03     131.145E-03
            3434            3957     137.578E-03     138.371E-03
            3435             697     130.858E-03     133.532E-03
            3435             698     122.271E-03     125.062E-03
            3435            3957     137.578E-03     138.371E-03
            3435            3958     144.715E-03     145.170E-03
            3436              32     140.337E-03     143.367E-03
            3436             696     151.085E-03     151.324E-03
            3436             697     130.858E-03     133.532E-03
            3436            3958     144.715E-03     145.170E-03
            3437              23     6.55896E-03     9.22767E-03
            3437             455     4.98413E-03     5.67537E-03
            3437             531     11.6152E-03     13.1821E-03
            3437            3959     9.52702E-03     9.75154E-03
            3438              17     4.32785E-03     3.06244E-03
            3438             455     4.98413E-03     5.67537E-03
            3438             672     8.52676E-03     6.66110E-03
            3438            3959     9.52702E-03     9.75154E-03
            3439             530     11.0108E-03     9.06988E-03
            3439             531     11.6152E-03     13.1821E-03
            3439            3959     9.52702E-03     9.75154E-03
            3439            3960     11.2596E-03     10.6663E-03
            3440             671     10.0538E-03     9.67075E-03
            3440             672     8.52676E-03     6.66110E-03
            3440            3959     9.52702E-03     9.75154E-03
            3440            3960     11.2596E-03     10.6663E-03
            3441             529     13.5885E-03     13.2705E-03
            3441             530     11.0108E-03     9.06988E-03
            3441            3960     11.2596E-03     10.6663E-03
            3441            3961     15.0577E-03     14.8712E-03
            3442             670     13.0495E-03     13.2009E-03
            3442             671     10.0538E-03     9.67075E-03
            3442            3960     11.2596E-03     10.6663E-03
            3442            3961     15.0577E-03     14.8712E-03
            3443             528     20.1249E-03     19.5998E-03
            3443             529     13.5885E-03     13.2705E-03
            3443            3961     15.0577E-03     14.8712E-03
            3443            3962     19.7124E-03     19.6777E-03
            3444             669     16.5360E-03     16.9393E-03
            3444             670     13.0495E-03     13.2009E-03
            3444            3961     15.0577E-03     14.8712E-03
            3444            3962     19.7124E-03     19.6777E-03
            3445             527     26.1602E-03     27.2942E-03
            3445             528     20.1249E-03     19.5998E-03
            3445            3962     19.7124E-03     19.6777E-03
            3445            3963     24.4265E-03     24.8553E-03
            3446             668     20.1019E-03     20.6022E-03
            3446             669     16.5360E-03     16.9393E-03
            3446            3962     19.7124E-03     19.6777E-03
            3446            3963     24.4265E-03     24.8553E-03
            3447             526     35.1320E-03     33.9101E-03
            3447             527     26.1602E-03     27.2942E-03
            3447            3963     24.4265E-03     24.8553E-03
            3447            3964     29.7233E-03     29.6847E-03
            3448             667     22.6129E-03     23.4729E-03
            3448             668     20.1019E-03     20.6022E-03
            3448            3963     24.4265E-03     24.8553E-03
            3448            3964     29.7233E-03     29.6847E-03
            3449             525     42.7267E-03     43.3806E-03
            3449             526     35.1320E-03     33.9101E-03
            3449            3964     29.7233E-03     29.6847E-03
            3449            3965     32.6532E-03     34.8496E-03
            3450             666     22.4274E-03     24.9761E-03
            3450             667     22.6129E-03     23.4729E-03
            3450            3964     29.7233E-03     29.6847E-03
            3450            3965     32.6532E-03     34.8496E-03
            3451             524     36.0455E-03     38.9457E-03
            3451             525     42.7267E-03     43.3806E-03
            3451            3965     32.6532E-03     34.8496E-03
            3451            3966     33.2309E-03     34.4070E-03
            3452             665     29.8224E-03     30.1202E-03
            3452             666     22.4274E-03     24.9761E-03
            3452            3965     32.6532E-03     34.8496E-03
            3452            3966     33.2309E-03     34.4070E-03
            3453             523     31.9299E-03     29.8481E-03
            3453             524     36.0455E-03     38.9457E-03
            3453            3966     33.2309E-03     34.4070E-03
            3453            3967     35.8677E-03     34.3081E-03
            3454             664     38.9151E-03     37.1774E-03
            3454             665     29.8224E-03     30.1202E-03
            3454            3966     33.2309E-03     34.4070E-03
            3454            3967     35.8677E-03     34.3081E-03
            3455             522     38.0532E-03     37.1295E-03
            3455             523     31.9299E-03     29.8481E-03
            3455            3967     35.8677E-03     34.3081E-03
            3455            3968     40.7529E-03     40.8218E-03
            3456             663     41.5015E-03     41.5760E-03
            3456             664     38.9151E-03     37.1774E-03
            3456            3967     35.8677E-03     34.3081E-03
            3456            3968     40.7529E-03     40.8218E-03
            3457             521     44.1958E-03     44.1053E-03
            3457             522     38.0532E-03     37.1295E-03
            3457            3968     40.7529E-03     40.8218E-03
            3457            3969     46.2791E-03     46.6047E-03
            3458             662     45.1438E-03     45.8475E-03
            3458             663     41.5015E-03     41.5760E-03
            3458            3968     40.7529E-03     40.8218E-03
            3458            3969     46.2791E-03     46.6047E-03
            3459             520     50.6380E-03     50.3715E-03
            3459             521     44.1958E-03     44.1053E-03
            3459            3969     46.2791E-03     46.6047E-03
            3459            3970     51.3374E-03     51.8301E-03
            3460             661     48.9812E-03     49.9006E-03
            3460             662     45.1438E-03     45.8475E-03
            3460            3969     46.2791E-03     46.6047E-03
            3460            3970     51.3374E-03     51.8301E-03
            3461             519     56.5659E-03     57.0360E-03
            3461             520     50.6380E-03     50.3715E-03
            3461            3970     51.3374E-03     51.8301E-03
            3461            3971     56.0542E-03     56.8058E-03
            3462             660     52.6494E-03     53.6151E-03
            3462             661     48.9812E-03     49.9006E-03
            3462            3970     51.3374E-03     51.8301E-03
            3462            3971     56.0542E-03     56.8058E-03
            3463             518     63.2982E-03     62.5903E-03
            3463             519     56.5659E-03     57.0360E-03
            3463            3971     56.0542E-03     56.8058E-03
            3463            3972     60.8191E-03     61.5455E-03
            3464             659     55.9189E-03     57.1421E-03
            3464             660     52.6494E-03     53.6151E-03
            3464            3971     56.0542E-03     56.8058E-03
            3464            3972     60.8191E-03     61.5455E-03
            3465             517     68.4108E-03     70.6508E-03
            3465             518     63.2982E-03     62.5903E-03
            3465            3972     60.8191E-03     61.5455E-03
            3465            3973     65.2438E-03     66.5237E-03
            3466             658     58.9688E-03     60.0724E-03
            3466             659     55.9189E-03     57.1421E-03
            3466            3972     60.8191E-03     61.5455E-03
            3466            3973     65.2438E-03     66.5237E-03
            3467             516     78.0450E-03     75.9521E-03
            3467             517     68.4108E-03     70.6508E-03
            3467            3973     65.2438E-03     66.5237E-03
            3467            3974     70.0366E-03     70.3624E-03
            3468             657     60.4366E-03     61.7232E-03
            3468             658     58.9688E-03     60.0724E-03
            3468            3973     65.2438E-03     66.5237E-03
            3468            3974     70.0366E-03     70.3624E-03
            3469             515     85.2217E-03     84.8828E-03
            3469             516     78.0450E-03     75.9521E-03
            3469            3974     70.0366E-03     70.3624E-03
            3469            3975     71.6655E-03     73.8218E-03
            3470             656     58.6265E-03     61.2696E-03
            3470             657     60.4366E-03     61.7232E-03
            3470            3974     70.0366E-03     70.3624E-03
            3470            3975     71.6655E-03     73.8218E-03
            3471             514     76.4925E-03     82.0400E-03
            3471             515     85.2217E-03     84.8828E-03
            3471            3975     71.6655E-03     73.8218E-03
            3471            3976     70.8123E-03     72.3478E-03
            3472             655     64.7368E-03     65.0212E-03
            3472             656     58.6265E-03     61.2696E-03
            3472            3975     71.6655E-03     73.8218E-03
            3472            3976     70.8123E-03     72.3478E-03
            3473             513     73.9713E-03     70.7035E-03
            3473             514     76.4925E-03     82.0400E-03
            3473            3976     70.8123E-03     72.3478E-03
            3473            3977     73.9991E-03     72.4483E-03
            3474             654     74.3846E-03     73.0515E-03
            3474             655     64.7368E-03     65.0212E-03
            3474            3976     70.8123E-03     72.3478E-03
            3474            3977     73.9991E-03     72.4483E-03
            3475             512     79.1106E-03     77.2704E-03
            3475             513     73.9713E-03     70.7035E-03
            3475            3977     73.9991E-03     72.4483E-03
            3475            3978     79.5571E-03     79.9339E-03
            3476             653     78.4322E-03     78.9735E-03
            3476             654     74.3846E-03     73.0515E-03
            3476            3977     73.9991E-03     72.4483E-03
            3476            3978     79.5571E-03     79.9339E-03
            3477             511     83.5131E-03     84.1637E-03
            3477             512     79.1106E-03     77.2704E-03
            3477            3978     79.5571E-03     79.9339E-03
            3477            3979     84.9559E-03     85.9095E-03
            3478             652     82.5847E-03     83.9449E-03
            3478             653     78.4322E-03     78.9735E-03
            3478            3978     79.5571E-03     79.9339E-03
            3478            3979     84.9559E-03     85.9095E-03
            3479             510     89.6518E-03     89.2178E-03
            3479             511     83.5131E-03     84.1637E-03
            3479            3979     84.9559E-03     85.9095E-03
            3479            3980     89.8342E-03     90.8385E-03
            3480             651     86.6030E-03     88.1434E-03
            3480             652     82.5847E-03     83.9449E-03
            3480            3979     84.9559E-03     85.9095E-03
            3480            3980     89.8342E-03     90.8385E-03
            3481             509     95.1060E-03     95.2443E-03
            3481             510     89.6518E-03     89.2178E-03
            3481            3980     89.8342E-03     90.8385E-03
            3481            3981     94.3840E-03     95.5420E-03
            3482             650     90.1608E-03     91.8302E-03
            3482             651     86.6030E-03     88.1434E-03
            3482            3980     89.8342E-03     90.8385E-03
            3482            3981     94.3840E-03     95.5420E-03
            3483             508     100.380E-03     101.132E-03
            3483             509     95.1060E-03     95.2443E-03
            3483            3981     94.3840E-03     95.5420E-03
            3483            3982     98.6240E-03     100.014E-03
            3484             649     93.4573E-03     95.1403E-03
            3484             650     90.1608E-03     91.8302E-03
            3484            3981     94.3840E-03     95.5420E-03
            3484            3982     98.6240E-03     100.014E-03
            3485             507     106.717E-03     105.781E-03
            3485             508     100.380E-03     101.132E-03
            3485            3982     98.6240E-03     100.014E-03
            3485            3983     102.891E-03     104.197E-03
            3486             648     96.2012E-03     98.1656E-03
            3486             649     93.4573E-03     95.1403E-03
            3486            3982     98.6240E-03     100.014E-03
            3486            3983     102.891E-03     104.197E-03
            3487             506     110.796E-03     113.889E-03
            3487             507     106.717E-03     105.781E-03
            3487            3983     102.891E-03     104.197E-03
            3487            3984     106.692E-03     108.660E-03
            3488             647     98.5699E-03     100.321E-03
            3488             648     96.2012E-03     98.1656E-03
            3488            3983     102.891E-03     104.197E-03
            3488            3984     106.692E-03     108.660E-03
            3489             505     120.954E-03     117.908E-03
            3489             506     110.796E-03     113.889E-03
            3489            3984     106.692E-03     108.660E-03
            3489            3985     110.778E-03     111.384E-03
            3490             646     98.9813E-03     100.676E-03
            3490             647     98.5699E-03     100.321E-03
            3490            3984     106.692E-03     108.660E-03
            3490            3985     110.778E-03     111.384E-03
            3491             504     127.795E-03     126.372E-03
            3491             505     120.954E-03     117.908E-03
            3491            3985     110.778E-03     111.384E-03
            3491            3986     110.985E-03     113.068E-03
            3492             645     95.4172E-03     98.1301E-03
            3492             646     98.9813E-03     100.676E-03
            3492            3985     110.778E-03     111.384E-03
            3492            3986     110.985E-03     113.068E-03
            3493             503     117.490E-03     125.889E-03
            3493             504     127.795E-03     126.372E-03
            3493            3986     110.985E-03     113.068E-03
            3493            3987     108.859E-03     110.954E-03
            3494             644     99.9220E-03     100.223E-03
            3494             645     95.4172E-03     98.1301E-03
            3494            3986     110.985E-03     113.068E-03
            3494            3987     108.859E-03     110.954E-03
            3495             502     116.977E-03     112.791E-03
            3495             503     117.490E-03     125.889E-03
            3495            3987     108.859E-03     110.954E-03
            3495            3988     112.882E-03     111.526E-03
            3496             643     109.943E-03     109.040E-03
            3496             644     99.9220E-03     100.223E-03
            3496            3987     108.859E-03     110.954E-03
            3496            3988     112.882E-03     111.526E-03
            3497             501     121.186E-03     118.357E-03
            3497             502     116.977E-03     112.791E-03
            3497            3988     112.882E-03     111.526E-03
            3497            3989     119.117E-03     119.769E-03
            3498             642     115.457E-03     116.508E-03
            3498             643     109.943E-03     109.040E-03
            3498            3988     112.882E-03     111.526E-03
            3498            3989     119.117E-03     119.769E-03
            3499             500     123.736E-03     125.289E-03
            3499             501     121.186E-03     118.357E-03
            3499            3989     119.117E-03     119.769E-03
            3499            3990     124.280E-03     125.924E-03
            3500             641     120.083E-03     122.113E-03
            3500             642     115.457E-03     116.508E-03
            3500            3989     119.117E-03     119.769E-03
            3500            3990     124.280E-03     125.924E-03
            3501             499     129.801E-03     129.085E-03
            3501             500     123.736E-03     125.289E-03
            3501            3990     124.280E-03     125.924E-03
            3501            3991     128.935E-03     130.464E-03
            3502             640     124.092E-03     126.383E-03
            3502             641     120.083E-03     122.113E-03
            3502            3990     124.280E-03     125.924E-03
            3502            3991     128.935E-03     130.464E-03
            3503             498     134.516E-03     134.887E-03
            3503             499     129.801E-03     129.085E-03
            3503            3991     128.935E-03     130.464E-03
            3503            3992     133.116E-03     134.842E-03
            3504             639     127.486E-03     129.858E-03
            3504             640     124.092E-03     126.383E-03
            3504            3991     128.935E-03     130.464E-03
            3504            3992     133.116E-03     134.842E-03
            3505             497     139.292E-03     140.219E-03
            3505             498     134.516E-03     134.887E-03
            3505            3992     133.116E-03     134.842E-03
            3505            3993     136.956E-03     138.892E-03
            3506             638     130.454E-03     132.837E-03
            3506             639     127.486E-03     129.858E-03
            3506            3992     133.116E-03     134.842E-03
            3506            3993     136.956E-03     138.892E-03
            3507             496     145.250E-03     144.087E-03
            3507             497     139.292E-03     140.219E-03
            3507            3993     136.956E-03     138.892E-03
            3507            3994     140.759E-03     142.563E-03
            3508             637     132.727E-03     135.400E-03
            3508             638     130.454E-03     132.837E-03
            3508            3993     136.956E-03     138.892E-03
            3508            3994     140.759E-03     142.563E-03
            3509             495     148.427E-03     152.205E-03
            3509             496     145.250E-03     144.087E-03
            3509            3994     140.759E-03     142.563E-03
            3509            3995     143.948E-03     146.511E-03
            3510             636     134.454E-03     136.828E-03
            3510             637     132.727E-03     135.400E-03
            3510            3994     140.759E-03     142.563E-03
            3510            3995     143.948E-03     146.511E-03
            3511             494     159.024E-03     155.093E-03
            3511             495     148.427E-03     152.205E-03
            3511            3995     143.948E-03     146.511E-03
            3511            3996     147.338E-03     148.187E-03
            3512             635     133.892E-03     135.984E-03
            3512             636     134.454E-03     136.828E-03
            3512            3995     143.948E-03     146.511E-03
            3512            3996     147.338E-03     148.187E-03
            3513             493     165.579E-03     163.145E-03
            3513             494     159.024E-03     155.093E-03
            3513            3996     147.338E-03     148.187E-03
            3513            3997     146.251E-03     148.236E-03
            3514             634     128.759E-03     131.524E-03
            3514             635     133.892E-03     135.984E-03
            3514            3996     147.338E-03     148.187E-03
            3514            3997     146.251E-03     148.236E-03
            3515             492     153.491E-03     164.548E-03
            3515             493     165.579E-03     163.145E-03
            3515            3997     146.251E-03     148.236E-03
            3515            3998     142.876E-03     145.633E-03
            3516             633     131.836E-03     132.300E-03
            3516             634     128.759E-03     131.524E-03
            3516            3997     146.251E-03     148.236E-03
            3516            3998     142.876E-03     145.633E-03
            3517             491     154.372E-03     149.856E-03
            3517             492     153.491E-03     164.548E-03
            3517            3998     142.876E-03     145.633E-03
            3517            3999     147.657E-03     146.802E-03
            3518             632     142.121E-03     141.923E-03
            3518             633     131.836E-03     132.300E-03
            3518            3998     142.876E-03     145.633E-03
            3518            3999     147.657E-03     146.802E-03
            3519             490     158.593E-03     154.895E-03
            3519             491     154.372E-03     149.856E-03
            3519            3999     147.657E-03     146.802E-03
            3519            4000     154.620E-03     155.780E-03
            3520             631     148.548E-03     150.558E-03
            3520             632     142.121E-03     141.923E-03
            3520            3999     147.657E-03     146.802E-03
            3520            4000     154.620E-03     155.780E-03
            3521             489     159.503E-03     162.966E-03
            3521             490     158.593E-03     154.895E-03
            3521            4000     154.620E-03     155.780E-03
            3521            4001     159.273E-03     162.152E-03
            3522             630     153.077E-03     156.109E-03
            3522             631     148.548E-03     150.558E-03
            3522            4000     154.620E-03     155.780E-03
            3522            4001     159.273E-03     162.152E-03
            3523             488     167.031E-03     164.451E-03
            3523             489     159.503E-03     162.966E-03
            3523            4001     159.273E-03     162.152E-03
            3523            4002     163.621E-03     165.867E-03
            3524             629     155.891E-03     159.679E-03
            3524             630     153.077E-03     156.109E-03
            3524            4001     159.273E-03     162.152E-03
            3524            4002     163.621E-03     165.867E-03
            3525             487     168.977E-03     173.656E-03
            3525             488     167.031E-03     164.451E-03
            3525            4002     163.621E-03     165.867E-03
            3525            4003     166.523E-03     169.844E-03
            3526             628     157.796E-03     161.026E-03
            3526             629     155.891E-03     159.679E-03
            3526            4002     163.621E-03     165.867E-03
            3526            4003     166.523E-03     169.844E-03
            3527             486     179.907E-03     175.327E-03
            3527             487     168.977E-03     173.656E-03
            3527            4003     166.523E-03     169.844E-03
            3527            4004     169.563E-03     170.778E-03
            3528             627     156.817E-03     159.688E-03
            3528             628     157.796E-03     161.026E-03
            3528            4003     166.523E-03     169.844E-03
            3528            4004     169.563E-03     170.778E-03
            3529             485     185.963E-03     183.054E-03
            3529             486     179.907E-03     175.327E-03
            3529            4004     169.563E-03     170.778E-03
            3529            4005     167.665E-03     169.698E-03
            3530             626     151.027E-03     154.089E-03
            3530             627     156.817E-03     159.688E-03
            3530            4004     169.563E-03     170.778E-03
            3530            4005     167.665E-03     169.698E-03
            3531              25     173.222E-03     180.235E-03
            3531             485     185.963E-03     183.054E-03
            3531             558     164.300E-03     166.550E-03
            3531            4005     167.665E-03     169.698E-03
            3532              28     153.115E-03     153.447E-03
            3532             558     164.300E-03     166.550E-03
            3532             626     151.027E-03     154.089E-03
            3532            4005     167.665E-03     169.698E-03
            3533              31     164.106E-03     168.518E-03
            3533             691     166.644E-03     171.250E-03
            3533             721     180.086E-03     187.896E-03
            3533            4006     184.280E-03     187.545E-03
            3534               8     194.601E-03     213.578E-03
            3534             189     203.016E-03     200.819E-03
            3534             721     180.086E-03     187.896E-03
            3534            4006     184.280E-03     187.545E-03
            3535             691     166.644E-03     171.250E-03
            3535             692     172.291E-03     176.178E-03
            3535            4006     184.280E-03     187.545E-03
            3535            4007     185.322E-03     186.908E-03
            3536             188     195.408E-03     189.024E-03
            3536             189     203.016E-03     200.819E-03
            3536            4006     184.280E-03     187.545E-03
            3536            4007     185.322E-03     186.908E-03
            3537             692     172.291E-03     176.178E-03
            3537             693     172.062E-03     175.569E-03
            3537            4007     185.322E-03     186.908E-03
            3537            4008     180.041E-03     184.252E-03
            3538             187     179.895E-03     187.268E-03
            3538             188     195.408E-03     189.024E-03
            3538            4007     185.322E-03     186.908E-03
            3538            4008     180.041E-03     184.252E-03
            3539             693     172.062E-03     175.569E-03
            3539             694     167.799E-03     170.486E-03
            3539            4008     180.041E-03     184.252E-03
            3539            4009     174.414E-03     175.941E-03
            3540             186     178.779E-03     173.159E-03
            3540             187     179.895E-03     187.268E-03
            3540            4008     180.041E-03     184.252E-03
            3540            4009     174.414E-03     175.941E-03
            3541             694     167.799E-03     170.486E-03
            3541             695     161.144E-03     160.982E-03
            3541            4009     174.414E-03     175.941E-03
            3541            4010     165.712E-03     165.069E-03
            3542             185     170.836E-03     166.704E-03
            3542             186     178.779E-03     173.159E-03
            3542            4009     174.414E-03     175.941E-03
            3542            4010     165.712E-03     165.069E-03
            3543             695     161.144E-03     160.982E-03
            3543             696     151.085E-03     151.324E-03
            3543            4010     165.712E-03     165.069E-03
            3543            4011     156.598E-03     157.389E-03
            3544             184     159.742E-03     164.306E-03
            3544             185     170.836E-03     166.704E-03
            3544            4010     165.712E-03     165.069E-03
            3544            4011     156.598E-03     157.389E-03
            3545              32     140.337E-03     143.367E-03
            3545             696     151.085E-03     151.324E-03
            3545             722     154.326E-03     159.355E-03
            3545            4011     156.598E-03     157.389E-03
            3546              10     166.621E-03     176.977E-03
            3546             184     159.742E-03     164.306E-03
            3546             722     154.326E-03     159.355E-03
            3546            4011     156.598E-03     157.389E-03
            3547               5     39.6799E-03     39.6354E-03
            3547             103     36.9036E-03     35.1412E-03
            3547             542     54.9877E-03     56.7280E-03
            3547            4012     55.3064E-03     52.7454E-03
            3548             102     37.3500E-03     38.2432E-03
            3548             103     36.9036E-03     35.1412E-03
            3548            4012     55.3064E-03     52.7454E-03
            3548            4013     57.1472E-03     56.4022E-03
            3549             101     35.9743E-03     38.3442E-03
            3549             102     37.3500E-03     38.2432E-03
            3549            4013     57.1472E-03     56.4022E-03
            3549            4014     54.0334E-03     57.5646E-03
            3550             100     37.7383E-03     37.9394E-03
            3550             101     35.9743E-03     38.3442E-03
            3550            4014     54.0334E-03     57.5646E-03
            3550            4015     55.3699E-03     54.9830E-03
            3551              99     38.0112E-03     37.9006E-03
            3551             100     37.7383E-03     37.9394E-03
            3551            4015     55.3699E-03     54.9830E-03
            3551            4016     53.6302E-03     55.1465E-03
            3552              98     37.8914E-03     36.2781E-03
            3552              99     38.0112E-03     37.9006E-03
            3552            4016     53.6302E-03     55.1465E-03
            3552            4017     53.4125E-03     51.5257E-03
            3553              97     36.8832E-03     37.1056E-03
            3553              98     37.8914E-03     36.2781E-03
            3553            4017     53.4125E-03     51.5257E-03
            3553            4018     50.6875E-03     49.6150E-03
            3554              96     35.7326E-03     36.7478E-03
            3554              97     36.8832E-03     37.1056E-03
            3554            4018     50.6875E-03     49.6150E-03
            3554            4019     47.0281E-03     51.0507E-03
            3555              95     38.1670E-03     36.5706E-03
            3555              96     35.7326E-03     36.7478E-03
            3555            4019     47.0281E-03     51.0507E-03
            3555            4020     53.0254E-03     50.4465E-03
            3556              94     38.0740E-03     39.4839E-03
            3556              95     38.1670E-03     36.5706E-03
            3556            4020     53.0254E-03     50.4465E-03
            3556            4021     54.3343E-03     53.2191E-03
            3557              93     36.4310E-03     39.4768E-03
            3557              94     38.0740E-03     39.4839E-03
            3557            4021     54.3343E-03     53.2191E-03
            3557            4022     51.0136E-03     53.8500E-03
            3558              92     37.7305E-03     38.9432E-03
            3558              93     36.4310E-03     39.4768E-03
            3558            4022     51.0136E-03     53.8500E-03
            3558            4023     52.1194E-03     51.5862E-03
            3559              91     37.9359E-03     38.5913E-03
            3559              92     37.7305E-03     38.9432E-03
            3559            4023     52.1194E-03     51.5862E-03
            3559            4024     51.2074E-03     51.1898E-03
            3560              90     38.0495E-03     37.3848E-03
            3560              91     37.9359E-03     38.5913E-03
            3560            4024     51.2074E-03     51.1898E-03
            3560            4025     50.1085E-03     49.7087E-03
            3561              89     38.0059E-03     36.3698E-03
            3561              90     38.0495E-03     37.3848E-03
            3561            4025     50.1085E-03     49.7087E-03
            3561            4026     49.0722E-03     47.9447E-03
            3562              88     37.9330E-03     35.6853E-03
            3562              89     38.0059E-03     36.3698E-03
            3562            4026     49.0722E-03     47.9447E-03
            3562            4027     47.2527E-03     46.9911E-03
            3563              87     37.2554E-03     34.6208E-03
            3563              88     37.9330E-03     35.6853E-03
            3563            4027     47.2527E-03     46.9911E-03
            3563            4028     46.5928E-03     44.2004E-03
            3564              86     36.1713E-03     35.6250E-03
            3564              87     37.2554E-03     34.6208E-03
            3564            4028     46.5928E-03     44.2004E-03
            3564            4029     44.1906E-03     43.1696E-03
            3565              85     35.9835E-03     36.1810E-03
            3565              86     36.1713E-03     35.6250E-03
            3565            4029     44.1906E-03     43.1696E-03
            3565            4030     42.5784E-03     45.0471E-03
            3566              84     38.3121E-03     36.9553E-03
            3566              85     35.9835E-03     36.1810E-03
            3566            4030     42.5784E-03     45.0471E-03
            3566            4031     47.6309E-03     45.5601E-03
            3567              83     38.0867E-03     39.2372E-03
            3567              84     38.3121E-03     36.9553E-03
            3567            4031     47.6309E-03     45.5601E-03
            3567            4032     48.2997E-03     47.5317E-03
            3568              82     36.7505E-03     39.0447E-03
            3568              83     38.0867E-03     39.2372E-03
            3568            4032     48.2997E-03     47.5317E-03
            3568            4033     45.4718E-03     47.5388E-03
            3569              81     37.6370E-03     38.5313E-03
            3569              82     36.7505E-03     39.0447E-03
            3569            4033     45.4718E-03     47.5388E-03
            3569            4034     45.9697E-03     45.5612E-03
            3570              80     37.7141E-03     38.1684E-03
            3570              81     37.6370E-03     38.5313E-03
            3570            4034     45.9697E-03     45.5612E-03
            3570            4035     45.0035E-03     45.0182E-03
            3571              79     37.7953E-03     37.2323E-03
            3571              80     37.7141E-03     38.1684E-03
            3571            4035     45.0035E-03     45.0182E-03
            3571            4036     43.9249E-03     43.7063E-03
            3572              78     37.8303E-03     36.5346E-03
            3572              79     37.7953E-03     37.2323E-03
            3572            4036     43.9249E-03     43.7063E-03
            3572            4037     42.9991E-03     42.2943E-03
            3573              77     37.8675E-03     36.1080E-03
            3573              78     37.8303E-03     36.5346E-03
            3573            4037     42.9991E-03     42.2943E-03
            3573            4038     41.7141E-03     41.2686E-03
            3574              76     37.3960E-03     35.5072E-03
            3574              77     37.8675E-03     36.1080E-03
            3574            4038     41.7141E-03     41.2686E-03
            3574            4039     40.8867E-03     39.4007E-03
            3575              75     36.7226E-03     36.2063E-03
            3575              76     37.3960E-03     35.5072E-03
            3575            4039     40.8867E-03     39.4007E-03
            3575            4040     39.3710E-03     38.7471E-03
            3576              74     37.0676E-03     36.8233E-03
            3576              75     36.7226E-03     36.2063E-03
            3576            4040     39.3710E-03     38.7471E-03
            3576            4041     39.1756E-03     40.1732E-03
            3577              73     38.8170E-03     37.7712E-03
            3577              74     37.0676E-03     36.8233E-03
            3577            4041     39.1756E-03     40.1732E-03
            3577            4042     42.5869E-03     41.1552E-03
            3578              72     38.6325E-03     39.2945E-03
            3578              73     38.8170E-03     37.7712E-03
            3578            4042     42.5869E-03     41.1552E-03
            3578            4043     42.7478E-03     42.3333E-03
            3579              71     37.7928E-03     39.0244E-03
            3579              72     38.6325E-03     39.2945E-03
            3579            4043     42.7478E-03     42.3333E-03
            3579            4044     40.7480E-03     41.9337E-03
            3580              70     38.3843E-03     38.6229E-03
            3580              71     37.7928E-03     39.0244E-03
            3580            4044     40.7480E-03     41.9337E-03
            3580            4045     40.7782E-03     40.5482E-03
            3581              69     38.4741E-03     38.3627E-03
            3581              70     38.3843E-03     38.6229E-03
            3581            4045     40.7782E-03     40.5482E-03
            3581            4046     39.9721E-03     40.0217E-03
            3582              68     38.5456E-03     37.9370E-03
            3582              69     38.4741E-03     38.3627E-03
            3582            4046     39.9721E-03     40.0217E-03
            3582            4047     39.1671E-03     39.0633E-03
            3583              67     38.6745E-03     37.7500E-03
            3583              68     38.5456E-03     37.9370E-03
            3583            4047     39.1671E-03     39.0633E-03
            3583            4048     38.6366E-03     38.2041E-03
            3584              66     38.5480E-03     37.5451E-03
            3584              67     38.6745E-03     37.7500E-03
            3584            4048     38.6366E-03     38.2041E-03
            3584            4049     38.0327E-03     37.3536E-03
            3585              65     38.2275E-03     37.7253E-03
            3585              66     38.5480E-03     37.5451E-03
            3585            4049     38.0327E-03     37.3536E-03
            3585            4050     37.3770E-03     36.9453E-03
            3586              64     38.8215E-03     38.3452E-03
            3586              65     38.2275E-03     37.7253E-03
            3586            4050     37.3770E-03     36.9453E-03
            3586            4051     37.9337E-03     37.8726E-03
            3587              63     40.1161E-03     39.3306E-03
            3587              64     38.8215E-03     38.3452E-03
            3587            4051     37.9337E-03     37.8726E-03
            3587            4052     39.8387E-03     39.0476E-03
            3588              62     40.0984E-03     40.1049E-03
            3588              63     40.1161E-03     39.3306E-03
            3588            4052     39.8387E-03     39.0476E-03
            3588            4053     39.7899E-03     39.5822E-03
            3589              61     39.7795E-03     39.9508E-03
            3589              62     40.0984E-03     40.1049E-03
            3589            4053     39.7899E-03     39.5822E-03
            3589            4054     38.8578E-03     39.2056E-03
            3590              60     40.1033E-03     39.7824E-03
            3590              61     39.7795E-03     39.9508E-03
            3590            4054     38.8578E-03     39.2056E-03
            3590            4055     38.8500E-03     38.5973E-03
            3591              59     40.0321E-03     39.8819E-03
            3591              60     40.1033E-03     39.7824E-03
            3591            4055     38.8500E-03     38.5973E-03
            3591            4056     38.5897E-03     38.5150E-03
            3592              58     40.1397E-03     39.8380E-03
            3592              59     40.0321E-03     39.8819E-03
            3592            4056     38.5897E-03     38.5150E-03
            3592            4057     38.6518E-03     38.3822E-03
            3593              57     40.0759E-03     39.5626E-03
            3593              58     40.1397E-03     39.8380E-03
            3593            4057     38.6518E-03     38.3822E-03
            3593            4058     38.5470E-03     38.0640E-03
            3594               2     20.4976E-03     20.2729E-03
            3594              57     40.0759E-03     39.5626E-03
            3594             470     19.6593E-03     19.4833E-03
            3594            4058     38.5470E-03     38.0640E-03
            3595             542     54.9877E-03     56.7280E-03
            3595             543     86.8287E-03     93.2633E-03
            3595            4012     55.3064E-03     52.7454E-03
            3595            4059     94.3326E-03     89.9740E-03
            3596            4012     55.3064E-03     52.7454E-03
            3596            4013     57.1472E-03     56.4022E-03
            3596            4059     94.3326E-03     89.9740E-03
            3596            4060     97.8582E-03     92.5053E-03
            3597            4013     57.1472E-03     56.4022E-03
            3597            4014     54.0334E-03     57.5646E-03
            3597            4060     97.8582E-03     92.5053E-03
            3597            4061     89.6920E-03     93.9032E-03
            3598            4014     54.0334E-03     57.5646E-03
            3598            4015     55.3699E-03     54.9830E-03
            3598            4061     89.6920E-03     93.9032E-03
            3598            4062     90.5039E-03     87.5413E-03
            3599            4015     55.3699E-03     54.9830E-03
            3599            4016     53.6302E-03     55.1465E-03
            3599            4062     90.5039E-03     87.5413E-03
            3599            4063     85.7305E-03     89.0810E-03
            3600            4016     53.6302E-03     55.1465E-03
            3600            4017     53.4125E-03     51.5257E-03
            3600            4063     85.7305E-03     89.0810E-03
            3600            4064     86.8450E-03     83.7384E-03
            3601            4017     53.4125E-03     51.5257E-03
            3601            4018     50.6875E-03     49.6150E-03
            3601            4064     86.8450E-03     83.7384E-03
            3601            4065     81.1143E-03     78.4435E-03
            3602            4018     50.6875E-03     49.6150E-03
            3602            4019     47.0281E-03     51.0507E-03
            3602            4065     81.1143E-03     78.4435E-03
            3602            4066     72.3028E-03     83.7551E-03
            3603            4019     47.0281E-03     51.0507E-03
            3603            4020     53.0254E-03     50.4465E-03
            3603            4066     72.3028E-03     83.7551E-03
            3603            4067     86.0849E-03     82.0291E-03
            3604            4020     53.0254E-03     50.4465E-03
            3604            4021     54.3343E-03     53.2191E-03
            3604            4067     86.0849E-03     82.0291E-03
            3604            4068     88.6768E-03     82.8131E-03
            3605            4021     54.3343E-03     53.2191E-03
            3605            4022     51.0136E-03     53.8500E-03
            3605            4068     88.6768E-03     82.8131E-03
            3605            4069     80.0345E-03     83.0375E-03
            3606            4022     51.0136E-03     53.8500E-03
            3606            4023     52.1194E-03     51.5862E-03
            3606            4069     80.0345E-03     83.0375E-03
            3606            4070     80.0260E-03     76.9915E-03
            3607            4023     52.1194E-03     51.5862E-03
            3607            4024     51.2074E-03     51.1898E-03
            3607            4070     80.0260E-03     76.9915E-03
            3607            4071     76.8445E-03     75.8650E-03
            3608            4024     51.2074E-03     51.1898E-03
            3608            4025     50.1085E-03     49.7087E-03
            3608            4071     76.8445E-03     75.8650E-03
            3608            4072     74.0291E-03     73.6942E-03
            3609            4025     50.1085E-03     49.7087E-03
            3609            4026     49.0722E-03     47.9447E-03
            3609            4072     74.0291E-03     73.6942E-03
            3609            4073     72.0349E-03     70.9610E-03
            3610            4026     49.0722E-03     47.9447E-03
            3610            4027     47.2527E-03     46.9911E-03
            3610            4073     72.0349E-03     70.9610E-03
            3610            4074     68.1924E-03     70.9425E-03
            3611            4027     47.2527E-03     46.9911E-03
            3611            4028     46.5928E-03     44.2004E-03
            3611            4074     68.1924E-03     70.9425E-03
            3611            4075     68.7826E-03     66.5655E-03
            3612            4028     46.5928E-03     44.2004E-03
            3612            4029     44.1906E-03     43.1696E-03
            3612            4075     68.7826E-03     66.5655E-03
            3612            4076     64.2138E-03     62.7631E-03
            3613            4029     44.1906E-03     43.1696E-03
            3613            4030     42.5784E-03     45.0471E-03
            3613            4076     64.2138E-03     62.7631E-03
            3613            4077     58.7471E-03     67.2435E-03
            3614            4030     42.5784E-03     45.0471E-03
            3614            4031     47.6309E-03     45.5601E-03
            3614            4077     58.7471E-03     67.2435E-03
            3614            4078     69.6021E-03     66.3775E-03
            3615            4031     47.6309E-03     45.5601E-03
            3615            4032     48.2997E-03     47.5317E-03
            3615            4078     69.6021E-03     66.3775E-03
            3615            4079     70.9246E-03     66.3044E-03
            3616            4032     48.2997E-03     47.5317E-03
            3616            4033     45.4718E-03     47.5388E-03
            3616            4079     70.9246E-03     66.3044E-03
            3616            4080     63.5559E-03     65.6840E-03
            3617            4033     45.4718E-03     47.5388E-03
            3617            4034     45.9697E-03     45.5612E-03
            3617            4080     63.5559E-03     65.6840E-03
            3617            4081     62.8542E-03     60.5480E-03
            3618            4034     45.9697E-03     45.5612E-03
            3618            4035     45.0035E-03     45.0182E-03
            3618            4081     62.8542E-03     60.5480E-03
            3618            4082     59.8125E-03     59.1201E-03
            3619            4035     45.0035E-03     45.0182E-03
            3619            4036     43.9249E-03     43.7063E-03
            3619            4082     59.8125E-03     59.1201E-03
            3619            4083     56.9580E-03     56.9227E-03
            3620            4036     43.9249E-03     43.7063E-03
            3620            4037     42.9991E-03     42.2943E-03
            3620            4083     56.9580E-03     56.9227E-03
            3620            4084     54.7622E-03     54.4291E-03
            3621            4037     42.9991E-03     42.2943E-03
            3621            4038     41.7141E-03     41.2686E-03
            3621            4084     54.7622E-03     54.4291E-03
            3621            4085     51.5854E-03     53.3753E-03
            3622            4038     41.7141E-03     41.2686E-03
            3622            4039     40.8867E-03     39.4007E-03
            3622            4085     51.5854E-03     53.3753E-03
            3622            4086     50.6341E-03     49.9242E-03
            3623            4039     40.8867E-03     39.4007E-03
            3623            4040     39.3710E-03     38.7471E-03
            3623            4086     50.6341E-03     49.9242E-03
            3623            4087     47.4600E-03     46.9037E-03
            3624            4040     39.3710E-03     38.7471E-03
            3624            4041     39.1756E-03     40.1732E-03
            3624            4087     47.4600E-03     46.9037E-03
            3624            4088     45.2820E-03     49.9756E-03
            3625            4041     39.1756E-03     40.1732E-03
            3625            4042     42.5869E-03     41.1552E-03
            3625            4088     45.2820E-03     49.9756E-03
            3625            4089     52.4107E-03     50.1968E-03
            3626            4042     42.5869E-03     41.1552E-03
            3626            4043     42.7478E-03     42.3333E-03
            3626            4089     52.4107E-03     50.1968E-03
            3626            4090     52.5270E-03     49.4684E-03
            3627            4043     42.7478E-03     42.3333E-03
            3627            4044     40.7480E-03     41.9337E-03
            3627            4090     52.5270E-03     49.4684E-03
            3627            4091     47.0704E-03     48.3077E-03
            3628            4044     40.7480E-03     41.9337E-03
            3628            4045     40.7782E-03     40.5482E-03
            3628            4091     47.0704E-03     48.3077E-03
            3628            4092     45.8691E-03     44.7530E-03
            3629            4045     40.7782E-03     40.5482E-03
            3629            4046     39.9721E-03     40.0217E-03
            3629            4092     45.8691E-03     44.7530E-03
            3629            4093     43.4250E-03     43.3284E-03
            3630            4046     39.9721E-03     40.0217E-03
            3630            4047     39.1671E-03     39.0633E-03
            3630            4093     43.4250E-03     43.3284E-03
            3630            4094     41.0071E-03     41.4400E-03
            3631            4047     39.1671E-03     39.0633E-03
            3631            4048     38.6366E-03     38.2041E-03
            3631            4094     41.0071E-03     41.4400E-03
            3631            4095     38.9749E-03     39.6583E-03
            3632            4048     38.6366E-03     38.2041E-03
            3632            4049     38.0327E-03     37.3536E-03
            3632            4095     38.9749E-03     39.6583E-03
            3632            4096     37.2225E-03     37.5696E-03
            3633            4049     38.0327E-03     37.3536E-03
            3633            4050     37.3770E-03     36.9453E-03
            3633            4096     37.2225E-03     37.5696E-03
            3633            4097     35.6028E-03     35.6630E-03
            3634            4050     37.3770E-03     36.9453E-03
            3634            4051     37.9337E-03     37.8726E-03
            3634            4097     35.6028E-03     35.6630E-03
            3634            4098     36.0459E-03     37.1899E-03
            3635            4051     37.9337E-03     37.8726E-03
            3635            4052     39.8387E-03     39.0476E-03
            3635            4098     36.0459E-03     37.1899E-03
            3635            4099     39.2684E-03     38.2287E-03
            3636            4052     39.8387E-03     39.0476E-03
            3636            4053     39.7899E-03     39.5822E-03
            3636            4099     39.2684E-03     38.2287E-03
            3636            4100     38.7385E-03     37.4841E-03
            3637            4053     39.7899E-03     39.5822E-03
            3637            4054     38.8578E-03     39.2056E-03
            3637            4100     38.7385E-03     37.4841E-03
            3637            4101     36.0741E-03     36.7097E-03
            3638            4054     38.8578E-03     39.2056E-03
            3638            4055     38.8500E-03     38.5973E-03
            3638            4101     36.0741E-03     36.7097E-03
            3638            4102     35.3440E-03     35.3801E-03
            3639            4055     38.8500E-03     38.5973E-03
            3639            4056     38.5897E-03     38.5150E-03
            3639            4102     35.3440E-03     35.3801E-03
            3639            4103     34.4979E-03     34.7353E-03
            3640            4056     38.5897E-03     38.5150E-03
            3640            4057     38.6518E-03     38.3822E-03
            3640            4103     34.4979E-03     34.7353E-03
            3640            4104     34.1363E-03     34.1329E-03
            3641            4057     38.6518E-03     38.3822E-03
            3641            4058     38.5470E-03     38.0640E-03
            3641            4104     34.1363E-03     34.1329E-03
            3641            4105     34.0213E-03     33.7710E-03
            3642             469     17.4182E-03     17.3247E-03
            3642             470     19.6593E-03     19.4833E-03
            3642            4058     38.5470E-03     38.0640E-03
            3642            4105     34.0213E-03     33.7710E-03
            3643             543     86.8287E-03     93.2633E-03
            3643             544     118.340E-03     131.675E-03
            3643            4059     94.3326E-03     89.9740E-03
            3643            4106     132.456E-03     127.293E-03
            3644            4059     94.3326E-03     89.9740E-03
            3644            4060     97.8582E-03     92.5053E-03
            3644            4106     132.456E-03     127.293E-03
            3644            4107     134.553E-03     124.427E-03
            3645            4060     97.8582E-03     92.5053E-03
            3645            4061     89.6920E-03     93.9032E-03
            3645            4107     134.553E-03     124.427E-03
            3645            4108     118.915E-03     125.466E-03
            3646            4061     89.6920E-03     93.9032E-03
            3646            4062     90.5039E-03     87.5413E-03
            3646            4108     118.915E-03     125.466E-03
            3646            4109     119.863E-03     114.806E-03
            3647            4062     90.5039E-03     87.5413E-03
            3647            4063     85.7305E-03     89.0810E-03
            3647            4109     119.863E-03     114.806E-03
            3647            4110     113.585E-03     118.956E-03
            3648            4063     85.7305E-03     89.0810E-03
            3648            4064     86.8450E-03     83.7384E-03
            3648            4110     113.585E-03     118.956E-03
            3648            4111     119.353E-03     113.785E-03
            3649            4064     86.8450E-03     83.7384E-03
            3649            4065     81.1143E-03     78.4435E-03
            3649            4111     119.353E-03     113.785E-03
            3649            4112     113.560E-03     110.730E-03
            3650            4065     81.1143E-03     78.4435E-03
            3650            4066     72.3028E-03     83.7551E-03
            3650            4112     113.560E-03     110.730E-03
            3650            4113     99.5095E-03     123.335E-03
            3651            4066     72.3028E-03     83.7551E-03
            3651            4067     86.0849E-03     82.0291E-03
            3651            4113     99.5095E-03     123.335E-03
            3651            4114     119.798E-03     115.906E-03
            3652            4067     86.0849E-03     82.0291E-03
            3652            4068     88.6768E-03     82.8131E-03
            3652            4114     119.798E-03     115.906E-03
            3652            4115     120.994E-03     111.731E-03
            3653            4068     88.6768E-03     82.8131E-03
            3653            4069     80.0345E-03     83.0375E-03
            3653            4115     120.994E-03     111.731E-03
            3653            4116     104.707E-03     111.453E-03
            3654            4069     80.0345E-03     83.0375E-03
            3654            4070     80.0260E-03     76.9915E-03
            3654            4116     104.707E-03     111.453E-03
            3654            4117     103.646E-03     101.158E-03
            3655            4070     80.0260E-03     76.9915E-03
            3655            4071     76.8445E-03     75.8650E-03
            3655            4117     103.646E-03     101.158E-03
            3655            4118     98.3718E-03     99.1220E-03
            3656            4071     76.8445E-03     75.8650E-03
            3656            4072     74.0291E-03     73.6942E-03
            3656            4118     98.3718E-03     99.1220E-03
            3656            4119     94.4644E-03     95.8049E-03
            3657            4072     74.0291E-03     73.6942E-03
            3657            4073     72.0349E-03     70.9610E-03
            3657            4119     94.4644E-03     95.8049E-03
            3657            4120     92.8184E-03     91.7663E-03
            3658            4073     72.0349E-03     70.9610E-03
            3658            4074     68.1924E-03     70.9425E-03
            3658            4120     92.8184E-03     91.7663E-03
            3658            4121     88.3536E-03     93.7108E-03
            3659            4074     68.1924E-03     70.9425E-03
            3659            4075     68.7826E-03     66.5655E-03
            3659            4121     88.3536E-03     93.7108E-03
            3659            4122     93.1878E-03     89.6172E-03
            3660            4075     68.7826E-03     66.5655E-03
            3660            4076     64.2138E-03     62.7631E-03
            3660            4122     93.1878E-03     89.6172E-03
            3660            4123     88.3915E-03     87.4943E-03
            3661            4076     64.2138E-03     62.7631E-03
            3661            4077     58.7471E-03     67.2435E-03
            3661            4123     88.3915E-03     87.4943E-03
            3661            4124     77.9572E-03     96.4332E-03
            3662            4077     58.7471E-03     67.2435E-03
            3662            4078     69.6021E-03     66.3775E-03
            3662            4124     77.9572E-03     96.4332E-03
            3662            4125     93.1922E-03     90.0534E-03
            3663            4078     69.6021E-03     66.3775E-03
            3663            4079     70.9246E-03     66.3044E-03
            3663            4125     93.1922E-03     90.0534E-03
            3663            4126     93.3199E-03     85.9110E-03
            3664            4079     70.9246E-03     66.3044E-03
            3664            4080     63.5559E-03     65.6840E-03
            3664            4126     93.3199E-03     85.9110E-03
            3664            4127     79.7789E-03     84.8825E-03
            3665            4080     63.5559E-03     65.6840E-03
            3665            4081     62.8542E-03     60.5480E-03
            3665            4127     79.7789E-03     84.8825E-03
            3665            4128     78.0308E-03     76.0887E-03
            3666            4081     62.8542E-03     60.5480E-03
            3666            4082     59.8125E-03     59.1201E-03
            3666            4128     78.0308E-03     76.0887E-03
            3666            4129     73.0785E-03     73.4923E-03
            3667            4082     59.8125E-03     59.1201E-03
            3667            4083     56.9580E-03     56.9227E-03
            3667            4129     73.0785E-03     73.4923E-03
            3667            4130     68.9078E-03     69.9434E-03
            3668            4083     56.9580E-03     56.9227E-03
            3668            4084     54.7622E-03     54.4291E-03
            3668            4130     68.9078E-03     69.9434E-03
            3668            4131     66.4816E-03     66.0313E-03
            3669            4084     54.7622E-03     54.4291E-03
            3669            4085     51.5854E-03     53.3753E-03
            3669            4131     66.4816E-03     66.0313E-03
            3669            4132     62.3487E-03     65.8507E-03
            3670            4085     51.5854E-03     53.3753E-03
            3670            4086     50.6341E-03     49.9242E-03
            3670            4132     62.3487E-03     65.8507E-03
            3670            4133     63.5276E-03     62.2924E-03
            3671            4086     50.6341E-03     49.9242E-03
            3671            4087     47.4600E-03     46.9037E-03
            3671            4133     63.5276E-03     62.2924E-03
            3671            4134     59.6643E-03     59.6773E-03
            3672            4087     47.4600E-03     46.9037E-03
            3672            4088     45.2820E-03     49.9756E-03
            3672            4134     59.6643E-03     59.6773E-03
            3672            4135     53.9311E-03     65.3509E-03
            3673            4088     45.2820E-03     49.9756E-03
            3673            4089     52.4107E-03     50.1968E-03
            3673            4135     53.9311E-03     65.3509E-03
            3673            4136     63.8378E-03     61.6017E-03
            3674            4089     52.4107E-03     50.1968E-03
            3674            4090     52.5270E-03     49.4684E-03
            3674            4136     63.8378E-03     61.6017E-03
            3674            4137     62.8995E-03     57.7187E-03
            3675            4090     52.5270E-03     49.4684E-03
            3675            4091     47.0704E-03     48.3077E-03
            3675            4137     62.8995E-03     57.7187E-03
            3675            4138     52.9259E-03     56.0002E-03
            3676            4091     47.0704E-03     48.3077E-03
            3676            4092     45.8691E-03     44.7530E-03
            3676            4138     52.9259E-03     56.0002E-03
            3676            4139     50.6204E-03     49.4084E-03
            3677            4092     45.8691E-03     44.7530E-03
            3677            4093     43.4250E-03     43.3284E-03
            3677            4139     50.6204E-03     49.4084E-03
            3677            4140     46.6217E-03     46.6432E-03
            3678            4093     43.4250E-03     43.3284E-03
            3678            4094     41.0071E-03     41.4400E-03
            3678            4140     46.6217E-03     46.6432E-03
            3678            4141     42.8259E-03     43.2737E-03
            3679            4094     41.0071E-03     41.4400E-03
            3679            4095     38.9749E-03     39.6583E-03
            3679            4141     42.8259E-03     43.2737E-03
            3679            4142     39.6901E-03     40.9293E-03
            3680            4095     38.9749E-03     39.6583E-03
            3680            4096     37.2225E-03     37.5696E-03
            3680            4142     39.6901E-03     40.9293E-03
            3680            4143     37.5877E-03     38.4564E-03
            3681            4096     37.2225E-03     37.5696E-03
            3681            4097     35.6028E-03     35.6630E-03
            3681            4143     37.5877E-03     38.4564E-03
            3681            4144     34.9199E-03     35.7283E-03
            3682            4097     35.6028E-03     35.6630E-03
            3682            4098     36.0459E-03     37.1899E-03
            3682            4144     34.9199E-03     35.7283E-03
            3682            4145     33.7456E-03     37.9737E-03
            3683            4098     36.0459E-03     37.1899E-03
            3683            4099     39.2684E-03     38.2287E-03
            3683            4145     33.7456E-03     37.9737E-03
            3683            4146     37.9863E-03     37.0410E-03
            3684            4099     39.2684E-03     38.2287E-03
            3684            4100     38.7385E-03     37.4841E-03
            3684            4146     37.9863E-03     37.0410E-03
            3684            4147     36.6544E-03     34.1730E-03
            3685            4100     38.7385E-03     37.4841E-03
            3685            4101     36.0741E-03     36.7097E-03
            3685            4147     36.6544E-03     34.1730E-03
            3685            4148     31.5319E-03     32.8366E-03
            3686            4101     36.0741E-03     36.7097E-03
            3686            4102     35.3440E-03     35.3801E-03
            3686            4148     31.5319E-03     32.8366E-03
            3686            4149     30.0955E-03     29.8136E-03
            3687            4102     35.3440E-03     35.3801E-03
            3687            4103     34.4979E-03     34.7353E-03
            3687            4149     30.0955E-03     29.8136E-03
            3687            4150     28.3521E-03     28.5681E-03
            3688            4103     34.4979E-03     34.7353E-03
            3688            4104     34.1363E-03     34.1329E-03
            3688            4150     28.3521E-03     28.5681E-03
            3688            4151     27.0912E-03     27.7107E-03
            3689            4104     34.1363E-03     34.1329E-03
            3689            4105     34.0213E-03     33.7710E-03
            3689            4151     27.0912E-03     27.7107E-03
            3689            4152     26.6587E-03     27.2126E-03
            3690             468     13.6025E-03     13.9654E-03
            3690             469     17.4182E-03     17.3247E-03
            3690            4105     34.0213E-03     33.7710E-03
            3690            4152     26.6587E-03     27.2126E-03
            3691             544     118.340E-03     131.675E-03
            3691             545     144.032E-03     164.326E-03
            3691            4106     132.456E-03     127.293E-03
            3691            4153     162.711E-03     160.407E-03
            3692            4106     132.456E-03     127.293E-03
            3692            4107     134.553E-03     124.427E-03
            3692            4153     162.711E-03     160.407E-03
            3692            4154     160.950E-03     152.907E-03
            3693            4107     134.553E-03     124.427E-03
            3693            4108     118.915E-03     125.466E-03
            3693            4154     160.950E-03     152.907E-03
            3693            4155     138.792E-03     152.861E-03
            3694            4108     118.915E-03     125.466E-03
            3694            4109     119.863E-03     114.806E-03
            3694            4155     138.792E-03     152.861E-03
            3694            4156     141.277E-03     138.359E-03
            3695            4109     119.863E-03     114.806E-03
            3695            4110     113.585E-03     118.956E-03
            3695            4156     141.277E-03     138.359E-03
            3695            4157     132.162E-03     143.563E-03
            3696            4110     113.585E-03     118.956E-03
            3696            4111     119.353E-03     113.785E-03
            3696            4157     132.162E-03     143.563E-03
            3696            4158     142.413E-03     138.227E-03
            3697            4111     119.353E-03     113.785E-03
            3697            4112     113.560E-03     110.730E-03
            3697            4158     142.413E-03     138.227E-03
            3697            4159     140.520E-03     138.986E-03
            3698            4112     113.560E-03     110.730E-03
            3698            4113     99.5095E-03     123.335E-03
            3698            4159     140.520E-03     138.986E-03
            3698            4160     122.749E-03     157.673E-03
            3699            4113     99.5095E-03     123.335E-03
            3699            4114     119.798E-03     115.906E-03
            3699            4160     122.749E-03     157.673E-03
            3699            4161     146.472E-03     145.125E-03
            3700            4114     119.798E-03     115.906E-03
            3700            4115     120.994E-03     111.731E-03
            3700            4161     146.472E-03     145.125E-03
            3700            4162     144.908E-03     137.436E-03
            3701            4115     120.994E-03     111.731E-03
            3701            4116     104.707E-03     111.453E-03
            3701            4162     144.908E-03     137.436E-03
            3701            4163     122.941E-03     136.219E-03
            3702            4116     104.707E-03     111.453E-03
            3702            4117     103.646E-03     101.158E-03
            3702            4163     122.941E-03     136.219E-03
            3702            4164     122.549E-03     123.151E-03
            3703            4117     103.646E-03     101.158E-03
            3703            4118     98.3718E-03     99.1220E-03
            3703            4164     122.549E-03     123.151E-03
            3703            4165     115.331E-03     120.651E-03
            3704            4118     98.3718E-03     99.1220E-03
            3704            4119     94.4644E-03     95.8049E-03
            3704            4165     115.331E-03     120.651E-03
            3704            4166     110.495E-03     115.979E-03
            3705            4119     94.4644E-03     95.8049E-03
            3705            4120     92.8184E-03     91.7663E-03
            3705            4166     110.495E-03     115.979E-03
            3705            4167     108.870E-03     110.086E-03
            3706            4120     92.8184E-03     91.7663E-03
            3706            4121     88.3536E-03     93.7108E-03
            3706            4167     108.870E-03     110.086E-03
            3706            4168     102.589E-03     111.878E-03
            3707            4121     88.3536E-03     93.7108E-03
            3707            4122     93.1878E-03     89.6172E-03
            3707            4168     102.589E-03     111.878E-03
            3707            4169     110.875E-03     107.834E-03
            3708            4122     93.1878E-03     89.6172E-03
            3708            4123     88.3915E-03     87.4943E-03
            3708            4169     110.875E-03     107.834E-03
            3708            4170     108.851E-03     108.725E-03
            3709            4123     88.3915E-03     87.4943E-03
            3709            4124     77.9572E-03     96.4332E-03
            3709            4170     108.851E-03     108.725E-03
            3709            4171     95.0590E-03     121.973E-03
            3710            4124     77.9572E-03     96.4332E-03
            3710            4125     93.1922E-03     90.0534E-03
            3710            4171     95.0590E-03     121.973E-03
            3710            4172     112.423E-03     111.334E-03
            3711            4125     93.1922E-03     90.0534E-03
            3711            4126     93.3199E-03     85.9110E-03
            3711            4172     112.423E-03     111.334E-03
            3711            4173     110.573E-03     104.507E-03
            3712            4126     93.3199E-03     85.9110E-03
            3712            4127     79.7789E-03     84.8825E-03
            3712            4173     110.573E-03     104.507E-03
            3712            4174     92.3385E-03     102.494E-03
            3713            4127     79.7789E-03     84.8825E-03
            3713            4128     78.0308E-03     76.0887E-03
            3713            4174     92.3385E-03     102.494E-03
            3713            4175     90.7165E-03     90.9936E-03
            3714            4128     78.0308E-03     76.0887E-03
            3714            4129     73.0785E-03     73.4923E-03
            3714            4175     90.7165E-03     90.9936E-03
            3714            4176     83.8709E-03     87.5476E-03
            3715            4129     73.0785E-03     73.4923E-03
            3715            4130     68.9078E-03     69.9434E-03
            3715            4176     83.8709E-03     87.5476E-03
            3715            4177     78.5780E-03     82.4319E-03
            3716            4130     68.9078E-03     69.9434E-03
            3716            4131     66.4816E-03     66.0313E-03
            3716            4177     78.5780E-03     82.4319E-03
            3716            4178     75.7484E-03     76.6852E-03
            3717            4131     66.4816E-03     66.0313E-03
            3717            4132     62.3487E-03     65.8507E-03
            3717            4178     75.7484E-03     76.6852E-03
            3717            4179     70.0757E-03     75.8375E-03
            3718            4132     62.3487E-03     65.8507E-03
            3718            4133     63.5276E-03     62.2924E-03
            3718            4179     70.0757E-03     75.8375E-03
            3718            4180     73.3097E-03     72.1107E-03
            3719            4133     63.5276E-03     62.2924E-03
            3719            4134     59.6643E-03     59.6773E-03
            3719            4180     73.3097E-03     72.1107E-03
            3719            4181     71.2502E-03     71.4718E-03
            3720            4134     59.6643E-03     59.6773E-03
            3720            4135     53.9311E-03     65.3509E-03
            3720            4181     71.2502E-03     71.4718E-03
            3720            4182     62.8296E-03     80.0562E-03
            3721            4135     53.9311E-03     65.3509E-03
            3721            4136     63.8378E-03     61.6017E-03
            3721            4182     62.8296E-03     80.0562E-03
            3721            4183     74.0871E-03     73.3555E-03
            3722            4136     63.8378E-03     61.6017E-03
            3722            4137     62.8995E-03     57.7187E-03
            3722            4183     74.0871E-03     73.3555E-03
            3722            4184     71.8498E-03     67.4439E-03
            3723            4137     62.8995E-03     57.7187E-03
            3723            4138     52.9259E-03     56.0002E-03
            3723            4184     71.8498E-03     67.4439E-03
            3723            4185     58.0232E-03     64.4360E-03
            3724            4138     52.9259E-03     56.0002E-03
            3724            4139     50.6204E-03     49.4084E-03
            3724            4185     58.0232E-03     64.4360E-03
            3724            4186     55.0377E-03     54.9052E-03
            3725            4139     50.6204E-03     49.4084E-03
            3725            4140     46.6217E-03     46.6432E-03
            3725            4186     55.0377E-03     54.9052E-03
            3725            4187     48.9818E-03     50.7452E-03
            3726            4140     46.6217E-03     46.6432E-03
            3726            4141     42.8259E-03     43.2737E-03
            3726            4187     48.9818E-03     50.7452E-03
            3726            4188     44.0036E-03     45.1903E-03
            3727            4141     42.8259E-03     43.2737E-03
            3727            4142     39.6901E-03     40.9293E-03
            3727            4188     44.0036E-03     45.1903E-03
            3727            4189     39.6905E-03     41.4341E-03
            3728            4142     39.6901E-03     40.9293E-03
            3728            4143     37.5877E-03     38.4564E-03
            3728            4189     39.6905E-03     41.4341E-03
            3728            4190     37.7562E-03     38.4869E-03
            3729            4143     37.5877E-03     38.4564E-03
            3729            4144     34.9199E-03     35.7283E-03
            3729            4190     37.7562E-03     38.4869E-03
            3729            4191     35.8428E-03     36.3848E-03
            3730            4144     34.9199E-03     35.7283E-03
            3730            4145     33.7456E-03     37.9737E-03
            3730            4191     35.8428E-03     36.3848E-03
            3730            4192     32.6906E-03     40.1080E-03
            3731            4145     33.7456E-03     37.9737E-03
            3731            4146     37.9863E-03     37.0410E-03
            3731            4192     32.6906E-03     40.1080E-03
            3731            4193     37.4994E-03     37.4743E-03
            3732            4146     37.9863E-03     37.0410E-03
            3732            4147     36.6544E-03     34.1730E-03
            3732            4193     37.4994E-03     37.4743E-03
            3732            4194     35.1763E-03     32.4991E-03
            3733            4147     36.6544E-03     34.1730E-03
            3733            4148     31.5319E-03     32.8366E-03
            3733            4194     35.1763E-03     32.4991E-03
            3733            4195     26.3542E-03     28.9551E-03
            3734            4148     31.5319E-03     32.8366E-03
            3734            4149     30.0955E-03     29.8136E-03
            3734            4195     26.3542E-03     28.9551E-03
            3734            4196     23.2632E-03     22.7021E-03
            3735            4149     30.0955E-03     29.8136E-03
            3735            4150     28.3521E-03     28.5681E-03
            3735            4196     23.2632E-03     22.7021E-03
            3735            4197     20.1060E-03     19.6856E-03
            3736            4150     28.3521E-03     28.5681E-03
            3736            4151     27.0912E-03     27.7107E-03
            3736            4197     20.1060E-03     19.6856E-03
            3736            4198     18.7434E-03     18.7871E-03
            3737            4151     27.0912E-03     27.7107E-03
            3737            4152     26.6587E-03     27.2126E-03
            3737            4198     18.7434E-03     18.7871E-03
            3737            4199     18.6275E-03     19.5364E-03
            3738             467     9.41521E-03     10.2273E-03
            3738             468     13.6025E-03     13.9654E-03
            3738            4152     26.6587E-03     27.2126E-03
            3738            4199     18.6275E-03     19.5364E-03
            3739             545     144.032E-03     164.326E-03
            3739             546     165.043E-03     182.221E-03
            3739            4153     162.711E-03     160.407E-03
            3739            4200     185.006E-03     181.746E-03
            3740            4153     162.711E-03     160.407E-03
            3740            4154     160.950E-03     152.907E-03
            3740            4200     185.006E-03     181.746E-03
            3740            4201     178.172E-03     171.399E-03
            3741            4154     160.950E-03     152.907E-03
            3741            4155     138.792E-03     152.861E-03
            3741            4201     178.172E-03     171.399E-03
            3741            4202     157.270E-03     169.587E-03
            3742            4155     138.792E-03     152.861E-03
            3742            4156     141.277E-03     138.359E-03
            3742            4202     157.270E-03     169.587E-03
            3742            4203     158.854E-03     155.470E-03
            3743            4156     141.277E-03     138.359E-03
            3743            4157     132.162E-03     143.563E-03
            3743            4203     158.854E-03     155.470E-03
            3743            4204     148.139E-03     158.026E-03
            3744            4157     132.162E-03     143.563E-03
            3744            4158     142.413E-03     138.227E-03
            3744            4204     148.139E-03     158.026E-03
            3744            4205     155.401E-03     150.891E-03
            3745            4158     142.413E-03     138.227E-03
            3745            4159     140.520E-03     138.986E-03
            3745            4205     155.401E-03     150.891E-03
            3745            4206     155.149E-03     151.143E-03
            3746            4159     140.520E-03     138.986E-03
            3746            4160     122.749E-03     157.673E-03
            3746            4206     155.149E-03     151.143E-03
            3746            4207     144.692E-03     172.578E-03
            3747            4160     122.749E-03     157.673E-03
            3747            4161     146.472E-03     145.125E-03
            3747            4207     144.692E-03     172.578E-03
            3747            4208     166.109E-03     163.393E-03
            3748            4161     146.472E-03     145.125E-03
            3748            4162     144.908E-03     137.436E-03
            3748            4208     166.109E-03     163.393E-03
            3748            4209     159.681E-03     153.380E-03
            3749            4162     144.908E-03     137.436E-03
            3749            4163     122.941E-03     136.219E-03
            3749            4209     159.681E-03     153.380E-03
            3749            4210     139.676E-03     150.300E-03
            3750            4163     122.941E-03     136.219E-03
            3750            4164     122.549E-03     123.151E-03
            3750            4210     139.676E-03     150.300E-03
            3750            4211     138.630E-03     138.082E-03
            3751            4164     122.549E-03     123.151E-03
            3751            4165     115.331E-03     120.651E-03
            3751            4211     138.630E-03     138.082E-03
            3751            4212     130.842E-03     134.816E-03
            3752            4165     115.331E-03     120.651E-03
            3752            4166     110.495E-03     115.979E-03
            3752            4212     130.842E-03     134.816E-03
            3752            4213     125.552E-03     129.150E-03
            3753            4166     110.495E-03     115.979E-03
            3753            4167     108.870E-03     110.086E-03
            3753            4213     125.552E-03     129.150E-03
            3753            4214     122.230E-03     122.483E-03
            3754            4167     108.870E-03     110.086E-03
            3754            4168     102.589E-03     111.878E-03
            3754            4214     122.230E-03     122.483E-03
            3754            4215     114.658E-03     121.417E-03
            3755            4168     102.589E-03     111.878E-03
            3755            4169     110.875E-03     107.834E-03
            3755            4215     114.658E-03     121.417E-03
            3755            4216     119.301E-03     115.734E-03
            3756            4169     110.875E-03     107.834E-03
            3756            4170     108.851E-03     108.725E-03
            3756            4216     119.301E-03     115.734E-03
            3756            4217     118.496E-03     115.295E-03
            3757            4170     108.851E-03     108.725E-03
            3757            4171     95.0590E-03     121.973E-03
            3757            4217     118.496E-03     115.295E-03
            3757            4218     111.301E-03     132.552E-03
            3758            4171     95.0590E-03     121.973E-03
            3758            4172     112.423E-03     111.334E-03
            3758            4218     111.301E-03     132.552E-03
            3758            4219     127.975E-03     126.092E-03
            3759            4172     112.423E-03     111.334E-03
            3759            4173     110.573E-03     104.507E-03
            3759            4219     127.975E-03     126.092E-03
            3759            4220     121.818E-03     116.791E-03
            3760            4173     110.573E-03     104.507E-03
            3760            4174     92.3385E-03     102.494E-03
            3760            4220     121.818E-03     116.791E-03
            3760            4221     104.507E-03     112.759E-03
            3761            4174     92.3385E-03     102.494E-03
            3761            4175     90.7165E-03     90.9936E-03
            3761            4221     104.507E-03     112.759E-03
            3761            4222     102.006E-03     101.434E-03
            3762            4175     90.7165E-03     90.9936E-03
            3762            4176     83.8709E-03     87.5476E-03
            3762            4222     102.006E-03     101.434E-03
            3762            4223     94.2610E-03     97.1347E-03
            3763            4176     83.8709E-03     87.5476E-03
            3763            4177     78.5780E-03     82.4319E-03
            3763            4223     94.2610E-03     97.1347E-03
            3763            4224     88.4127E-03     90.8731E-03
            3764            4177     78.5780E-03     82.4319E-03
            3764            4178     75.7484E-03     76.6852E-03
            3764            4224     88.4127E-03     90.8731E-03
            3764            4225     83.8749E-03     84.2005E-03
            3765            4178     75.7484E-03     76.6852E-03
            3765            4179     70.0757E-03     75.8375E-03
            3765            4225     83.8749E-03     84.2005E-03
            3765            4226     76.8528E-03     80.8533E-03
            3766            4179     70.0757E-03     75.8375E-03
            3766            4180     73.3097E-03     72.1107E-03
            3766            4226     76.8528E-03     80.8533E-03
            3766            4227     77.1834E-03     75.1649E-03
            3767            4180     73.3097E-03     72.1107E-03
            3767            4181     71.2502E-03     71.4718E-03
            3767            4227     77.1834E-03     75.1649E-03
            3767            4228     75.2716E-03     72.9265E-03
            3768            4181     71.2502E-03     71.4718E-03
            3768            4182     62.8296E-03     80.0562E-03
            3768            4228     75.2716E-03     72.9265E-03
            3768            4229     72.5072E-03     86.2134E-03
            3769            4182     62.8296E-03     80.0562E-03
            3769            4183     74.0871E-03     73.3555E-03
            3769            4229     72.5072E-03     86.2134E-03
            3769            4230     84.7969E-03     83.8630E-03
            3770            4183     74.0871E-03     73.3555E-03
            3770            4184     71.8498E-03     67.4439E-03
            3770            4230     84.7969E-03     83.8630E-03
            3770            4231     78.7962E-03     75.2158E-03
            3771            4184     71.8498E-03     67.4439E-03
            3771            4185     58.0232E-03     64.4360E-03
            3771            4231     78.7962E-03     75.2158E-03
            3771            4232     64.5022E-03     69.9880E-03
            3772            4185     58.0232E-03     64.4360E-03
            3772            4186     55.0377E-03     54.9052E-03
            3772            4232     64.5022E-03     69.9880E-03
            3772            4233     60.2673E-03     59.6934E-03
            3773            4186     55.0377E-03     54.9052E-03
            3773            4187     48.9818E-03     50.7452E-03
            3773            4233     60.2673E-03     59.6934E-03
            3773            4234     52.6274E-03     54.2849E-03
            3774            4187     48.9818E-03     50.7452E-03
            3774            4188     44.0036E-03     45.1903E-03
            3774            4234     52.6274E-03     54.2849E-03
            3774            4235     46.4840E-03     47.1031E-03
            3775            4188     44.0036E-03     45.1903E-03
            3775            4189     39.6905E-03     41.4341E-03
            3775            4235     46.4840E-03     47.1031E-03
            3775            4236     40.1951E-03     41.2577E-03
            3776            4189     39.6905E-03     41.4341E-03
            3776            4190     37.7562E-03     38.4869E-03
            3776            4236     40.1951E-03     41.2577E-03
            3776            4237     36.0778E-03     35.6537E-03
            3777            4190     37.7562E-03     38.4869E-03
            3777            4191     35.8428E-03     36.3848E-03
            3777            4237     36.0778E-03     35.6537E-03
            3777            4238     33.1118E-03     31.7264E-03
            3778            4191     35.8428E-03     36.3848E-03
            3778            4192     32.6906E-03     40.1080E-03
            3778            4238     33.1118E-03     31.7264E-03
            3778            4239     34.5538E-03     40.7085E-03
            3779            4192     32.6906E-03     40.1080E-03
            3779            4193     37.4994E-03     37.4743E-03
            3779            4239     34.5538E-03     40.7085E-03
            3779            4240     41.9115E-03     41.9776E-03
            3780            4193     37.4994E-03     37.4743E-03
            3780            4194     35.1763E-03     32.4991E-03
            3780            4240     41.9115E-03     41.9776E-03
            3780            4241     35.8011E-03     33.5616E-03
            3781            4194     35.1763E-03     32.4991E-03
            3781            4195     26.3542E-03     28.9551E-03
            3781            4241     35.8011E-03     33.5616E-03
            3781            4242     24.4006E-03     26.9419E-03
            3782            4195     26.3542E-03     28.9551E-03
            3782            4196     23.2632E-03     22.7021E-03
            3782            4242     24.4006E-03     26.9419E-03
            3782            4243     18.6094E-03     18.0855E-03
            3783            4196     23.2632E-03     22.7021E-03
            3783            4197     20.1060E-03     19.6856E-03
            3783            4243     18.6094E-03     18.0855E-03
            3783            4244     12.3739E-03     11.8321E-03
            3784            4197     20.1060E-03     19.6856E-03
            3784            4198     18.7434E-03     18.7871E-03
            3784            4244     12.3739E-03     11.8321E-03
            3784            4245     10.6658E-03     8.88203E-03
            3785            4198     18.7434E-03     18.7871E-03
            3785            4199     18.6275E-03     19.5364E-03
            3785            4245     10.6658E-03     8.88203E-03
            3785            4246     12.4812E-03     13.4916E-03
            3786             466     7.10245E-03     8.96129E-03
            3786             467     9.41521E-03     10.2273E-03
            3786            4199     18.6275E-03     19.5364E-03
            3786            4246     12.4812E-03     13.4916E-03
            3787              25     173.222E-03     180.235E-03
            3787             485     185.963E-03     183.054E-03
            3787             546     165.043E-03     182.221E-03
            3787            4200     185.006E-03     181.746E-03
            3788             485     185.963E-03     183.054E-03
            3788             486     179.907E-03     175.327E-03
            3788            4200     185.006E-03     181.746E-03
            3788            4201     178.172E-03     171.399E-03
            3789             486     179.907E-03     175.327E-03
            3789             487     168.977E-03     173.656E-03
            3789            4201     178.172E-03     171.399E-03
            3789            4202     157.270E-03     169.587E-03
            3790             487     168.977E-03     173.656E-03
            3790             488     167.031E-03     164.451E-03
            3790            4202     157.270E-03     169.587E-03
            3790            4203     158.854E-03     155.470E-03
            3791             488     167.031E-03     164.451E-03
            3791             489     159.503E-03     162.966E-03
            3791            4203     158.854E-03     155.470E-03
            3791            4204     148.139E-03     158.026E-03
            3792             489     159.503E-03     162.966E-03
            3792             490     158.593E-03     154.895E-03
            3792            4204     148.139E-03     158.026E-03
            3792            4205     155.401E-03     150.891E-03
            3793             490     158.593E-03     154.895E-03
            3793             491     154.372E-03     149.856E-03
            3793            4205     155.401E-03     150.891E-03
            3793            4206     155.149E-03     151.143E-03
            3794             491     154.372E-03     149.856E-03
            3794             492     153.491E-03     164.548E-03
            3794            4206     155.149E-03     151.143E-03
            3794            4207     144.692E-03     172.578E-03
            3795             492     153.491E-03     164.548E-03
            3795             493     165.579E-03     163.145E-03
            3795            4207     144.692E-03     172.578E-03
            3795            4208     166.109E-03     163.393E-03
            3796             493     165.579E-03     163.145E-03
            3796             494     159.024E-03     155.093E-03
            3796            4208     166.109E-03     163.393E-03
            3796            4209     159.681E-03     153.380E-03
            3797             494     159.024E-03     155.093E-03
            3797             495     148.427E-03     152.205E-03
            3797            4209     159.681E-03     153.380E-03
            3797            4210     139.676E-03     150.300E-03
            3798             495     148.427E-03     152.205E-03
            3798             496     145.250E-03     144.087E-03
            3798            4210     139.676E-03     150.300E-03
            3798            4211     138.630E-03     138.082E-03
            3799             496     145.250E-03     144.087E-03
            3799             497     139.292E-03     140.219E-03
            3799            4211     138.630E-03     138.082E-03
            3799            4212     130.842E-03     134.816E-03
            3800             497     139.292E-03     140.219E-03
            3800             498     134.516E-03     134.887E-03
            3800            4212     130.842E-03     134.816E-03
            3800            4213     125.552E-03     129.150E-03
            3801             498     134.516E-03     134.887E-03
            3801             499     129.801E-03     129.085E-03
            3801            4213     125.552E-03     129.150E-03
            3801            4214     122.230E-03     122.483E-03
            3802             499     129.801E-03     129.085E-03
            3802             500     123.736E-03     125.289E-03
            3802            4214     122.230E-03     122.483E-03
            3802            4215     114.658E-03     121.417E-03
            3803             500     123.736E-03     125.289E-03
            3803             501     121.186E-03     118.357E-03
            3803            4215     114.658E-03     121.417E-03
            3803            4216     119.301E-03     115.734E-03
            3804             501     121.186E-03     118.357E-03
            3804             502     116.977E-03     112.791E-03
            3804            4216     119.301E-03     115.734E-03
            3804            4217     118.496E-03     115.295E-03
            3805             502     116.977E-03     112.791E-03
            3805             503     117.490E-03     125.889E-03
            3805            4217     118.496E-03     115.295E-03
            3805            4218     111.301E-03     132.552E-03
            3806             503     117.490E-03     125.889E-03
            3806             504     127.795E-03     126.372E-03
            3806            4218     111.301E-03     132.552E-03
            3806            4219     127.975E-03     126.092E-03
            3807             504     127.795E-03     126.372E-03
            3807             505     120.954E-03     117.908E-03
            3807            4219     127.975E-03     126.092E-03
            3807            4220     121.818E-03     116.791E-03
            3808             505     120.954E-03     117.908E-03
            3808             506     110.796E-03     113.889E-03
            3808            4220     121.818E-03     116.791E-03
            3808            4221     104.507E-03     112.759E-03
            3809             506     110.796E-03     113.889E-03
            3809             507     106.717E-03     105.781E-03
            3809            4221     104.507E-03     112.759E-03
            3809            4222     102.006E-03     101.434E-03
            3810             507     106.717E-03     105.781E-03
            3810             508     100.380E-03     101.132E-03
            3810            4222     102.006E-03     101.434E-03
            3810            4223     94.2610E-03     97.1347E-03
            3811             508     100.380E-03     101.132E-03
            3811             509     95.1060E-03     95.2443E-03
            3811            4223     94.2610E-03     97.1347E-03
            3811            4224     88.4127E-03     90.8731E-03
            3812             509     95.1060E-03     95.2443E-03
            3812             510     89.6518E-03     89.2178E-03
            3812            4224     88.4127E-03     90.8731E-03
            3812            4225     83.8749E-03     84.2005E-03
            3813             510     89.6518E-03     89.2178E-03
            3813             511     83.5131E-03     84.1637E-03
            3813            4225     83.8749E-03     84.2005E-03
            3813            4226     76.8528E-03     80.8533E-03
            3814             511     83.5131E-03     84.1637E-03
            3814             512     79.1106E-03     77.2704E-03
            3814            4226     76.8528E-03     80.8533E-03
            3814            4227     77.1834E-03     75.1649E-03
            3815             512     79.1106E-03     77.2704E-03
            3815             513     73.9713E-03     70.7035E-03
            3815            4227     77.1834E-03     75.1649E-03
            3815            4228     75.2716E-03     72.9265E-03
            3816             513     73.9713E-03     70.7035E-03
            3816             514     76.4925E-03     82.0400E-03
            3816            4228     75.2716E-03     72.9265E-03
            3816            4229     72.5072E-03     86.2134E-03
            3817             514     76.4925E-03     82.0400E-03
            3817             515     85.2217E-03     84.8828E-03
            3817            4229     72.5072E-03     86.2134E-03
            3817            4230     84.7969E-03     83.8630E-03
            3818             515     85.2217E-03     84.8828E-03
            3818             516     78.0450E-03     75.9521E-03
            3818            4230     84.7969E-03     83.8630E-03
            3818            4231     78.7962E-03     75.2158E-03
            3819             516     78.0450E-03     75.9521E-03
            3819             517     68.4108E-03     70.6508E-03
            3819            4231     78.7962E-03     75.2158E-03
            3819            4232     64.5022E-03     69.9880E-03
            3820             517     68.4108E-03     70.6508E-03
            3820             518     63.2982E-03     62.5903E-03
            3820            4232     64.5022E-03     69.9880E-03
            3820            4233     60.2673E-03     59.6934E-03
            3821             518     63.2982E-03     62.5903E-03
            3821             519     56.5659E-03     57.0360E-03
            3821            4233     60.2673E-03     59.6934E-03
            3821            4234     52.6274E-03     54.2849E-03
            3822             519     56.5659E-03     57.0360E-03
            3822             520     50.6380E-03     50.3715E-03
            3822            4234     52.6274E-03     54.2849E-03
            3822            4235     46.4840E-03     47.1031E-03
            3823             520     50.6380E-03     50.3715E-03
            3823             521     44.1958E-03     44.1053E-03
            3823            4235     46.4840E-03     47.1031E-03
            3823            4236     40.1951E-03     41.2577E-03
            3824             521     44.1958E-03     44.1053E-03
            3824             522     38.0532E-03     37.1295E-03
            3824            4236     40.1951E-03     41.2577E-03
            3824            4237     36.0778E-03     35.6537E-03
            3825             522     38.0532E-03     37.1295E-03
            3825             523     31.9299E-03     29.8481E-03
            3825            4237     36.0778E-03     35.6537E-03
            3825            4238     33.1118E-03     31.7264E-03
            3826             523     31.9299E-03     29.8481E-03
            3826             524     36.0455E-03     38.9457E-03
            3826            4238     33.1118E-03     31.7264E-03
            3826            4239     34.5538E-03     40.7085E-03
            3827             524     36.0455E-03     38.9457E-03
            3827             525     42.7267E-03     43.3806E-03
            3827            4239     34.5538E-03     40.7085E-03
            3827            4240     41.9115E-03     41.9776E-03
            3828             525     42.7267E-03     43.3806E-03
            3828             526     35.1320E-03     33.9101E-03
            3828            4240     41.9115E-03     41.9776E-03
            3828            4241     35.8011E-03     33.5616E-03
            3829             526     35.1320E-03     33.9101E-03
            3829             527     26.1602E-03     27.2942E-03
            3829            4241     35.8011E-03     33.5616E-03
            3829            4242     24.4006E-03     26.9419E-03
            3830             527     26.1602E-03     27.2942E-03
            3830             528     20.1249E-03     19.5998E-03
            3830            4242     24.4006E-03     26.9419E-03
            3830            4243     18.6094E-03     18.0855E-03
            3831             528     20.1249E-03     19.5998E-03
            3831             529     13.5885E-03     13.2705E-03
            3831            4243     18.6094E-03     18.0855E-03
            3831            4244     12.3739E-03     11.8321E-03
            3832             529     13.5885E-03     13.2705E-03
            3832             530     11.0108E-03     9.06988E-03
            3832            4244     12.3739E-03     11.8321E-03
            3832            4245     10.6658E-03     8.88203E-03
            3833             530     11.0108E-03     9.06988E-03
            3833             531     11.6152E-03     13.1821E-03
            3833            4245     10.6658E-03     8.88203E-03
            3833            4246     12.4812E-03     13.4916E-03
            3834              23     6.55896E-03     9.22767E-03
            3834             466     7.10245E-03     8.96129E-03
            3834             531     11.6152E-03     13.1821E-03
            3834            4246     12.4812E-03     13.4916E-03
            3947              21     153.115E-03     153.447E-03
            3947             460     164.300E-03     166.550E-03
            3947             748     156.391E-03     158.883E-03
            3947            4331     164.186E-03     167.221E-03
            3948               6     173.222E-03     180.235E-03
            3948             172     169.166E-03     171.248E-03
            3948             460     164.300E-03     166.550E-03
            3948            4331     164.186E-03     167.221E-03
            3949             747     159.172E-03     162.516E-03
            3949             748     156.391E-03     158.883E-03
            3949            4331     164.186E-03     167.221E-03
            3949            4332     166.825E-03     171.387E-03
            3950             171     172.544E-03     181.238E-03
            3950             172     169.166E-03     171.248E-03
            3950            4331     164.186E-03     167.221E-03
            3950            4332     166.825E-03     171.387E-03
            3951             746     168.401E-03     169.826E-03
            3951             747     159.172E-03     162.516E-03
            3951            4332     166.825E-03     171.387E-03
            3951            4333     175.711E-03     175.853E-03
            3952             170     183.500E-03     177.623E-03
            3952             171     172.544E-03     181.238E-03
            3952            4332     166.825E-03     171.387E-03
            3952            4333     175.711E-03     175.853E-03
            3953             745     174.599E-03     177.197E-03
            3953             746     168.401E-03     169.826E-03
            3953            4333     175.711E-03     175.853E-03
            3953            4334     182.355E-03     185.005E-03
            3954             169     185.542E-03     185.730E-03
            3954             170     183.500E-03     177.623E-03
            3954            4333     175.711E-03     175.853E-03
            3954            4334     182.355E-03     185.005E-03
            3955             744     175.323E-03     178.750E-03
            3955             745     174.599E-03     177.197E-03
            3955            4334     182.355E-03     185.005E-03
            3955            4335     186.039E-03     188.403E-03
            3956             168     192.189E-03     190.376E-03
            3956             169     185.542E-03     185.730E-03
            3956            4334     182.355E-03     185.005E-03
            3956            4335     186.039E-03     188.403E-03
            3957             743     169.638E-03     174.159E-03
            3957             744     175.323E-03     178.750E-03
            3957            4335     186.039E-03     188.403E-03
            3957            4336     184.215E-03     187.059E-03
            3958             167     199.490E-03     195.570E-03
            3958             168     192.189E-03     190.376E-03
            3958            4335     186.039E-03     188.403E-03
            3958            4336     184.215E-03     187.059E-03
            3959              31     164.106E-03     168.518E-03
            3959             721     180.086E-03     187.896E-03
            3959             743     169.638E-03     174.159E-03
            3959            4336     184.215E-03     187.059E-03
            3960               8     194.601E-03     213.578E-03
            3960             167     199.490E-03     195.570E-03
            3960             721     180.086E-03     187.896E-03
            3960            4336     184.215E-03     187.059E-03
            3961              12     24.5742E-03     24.3784E-03
            3961             196     23.6807E-03     23.4852E-03
            3961             245     48.0317E-03     47.8124E-03
            3961            4337     46.4013E-03     46.2187E-03
            3962             244     48.4263E-03     48.0933E-03
            3962             245     48.0317E-03     47.8124E-03
            3962            4337     46.4013E-03     46.2187E-03
            3962            4338     46.9620E-03     46.6459E-03
            3963             243     48.2579E-03     47.5962E-03
            3963             244     48.4263E-03     48.0933E-03
            3963            4338     46.9620E-03     46.6459E-03
            3963            4339     46.6913E-03     46.1724E-03
            3964             242     47.7827E-03     47.1895E-03
            3964             243     48.2579E-03     47.5962E-03
            3964            4339     46.6913E-03     46.1724E-03
            3964            4340     45.9222E-03     45.5487E-03
            3965             241     48.0577E-03     47.2465E-03
            3965             242     47.7827E-03     47.1895E-03
            3965            4340     45.9222E-03     45.5487E-03
            3965            4341     46.0497E-03     45.4745E-03
            3966             240     48.2952E-03     47.2971E-03
            3966             241     48.0577E-03     47.2465E-03
            3966            4341     46.0497E-03     45.4745E-03
            3966            4342     46.4921E-03     45.8315E-03
            3967             239     48.2800E-03     47.4093E-03
            3967             240     48.2952E-03     47.2971E-03
            3967            4342     46.4921E-03     45.8315E-03
            3967            4343     46.7855E-03     46.3459E-03
            3968             238     48.2876E-03     47.4569E-03
            3968             239     48.2800E-03     47.4093E-03
            3968            4343     46.7855E-03     46.3459E-03
            3968            4344     47.2873E-03     47.0010E-03
            3969             237     48.1699E-03     47.7604E-03
            3969             238     48.2876E-03     47.4569E-03
            3969            4344     47.2873E-03     47.0010E-03
            3969            4345     47.7859E-03     47.8293E-03
            3970             236     48.1231E-03     48.2452E-03
            3970             237     48.1699E-03     47.7604E-03
            3970            4345     47.7859E-03     47.8293E-03
            3970            4346     48.5919E-03     48.6759E-03
            3971             235     48.1561E-03     48.4884E-03
            3971             236     48.1231E-03     48.2452E-03
            3971            4346     48.5919E-03     48.6759E-03
            3971            4347     49.4327E-03     49.1664E-03
            3972             234     47.6568E-03     48.9347E-03
            3972             235     48.1561E-03     48.4884E-03
            3972            4347     49.4327E-03     49.1664E-03
            3972            4348     49.5249E-03     50.6134E-03
            3973             233     48.6623E-03     49.2130E-03
            3973             234     47.6568E-03     48.9347E-03
            3973            4348     49.5249E-03     50.6134E-03
            3973            4349     51.7331E-03     51.1638E-03
            3974             232     48.8774E-03     47.5712E-03
            3974             233     48.6623E-03     49.2130E-03
            3974            4349     51.7331E-03     51.1638E-03
            3974            4350     51.6444E-03     50.0230E-03
            3975             231     47.0859E-03     46.6160E-03
            3975             232     48.8774E-03     47.5712E-03
            3975            4350     51.6444E-03     50.0230E-03
            3975            4351     48.1348E-03     48.9089E-03
            3976             230     46.6556E-03     46.1828E-03
            3976             231     47.0859E-03     46.6160E-03
            3976            4351     48.1348E-03     48.9089E-03
            3976            4352     48.1224E-03     47.5023E-03
            3977             229     47.3066E-03     45.5584E-03
            3977             230     46.6556E-03     46.1828E-03
            3977            4352     48.1224E-03     47.5023E-03
            3977            4353     49.6004E-03     48.2447E-03
            3978             228     47.6846E-03     46.0948E-03
            3978             229     47.3066E-03     45.5584E-03
            3978            4353     49.6004E-03     48.2447E-03
            3978            4354     50.6294E-03     50.1017E-03
            3979             227     47.4424E-03     46.5478E-03
            3979             228     47.6846E-03     46.0948E-03
            3979            4354     50.6294E-03     50.1017E-03
            3979            4355     51.6521E-03     51.4616E-03
            3980             226     47.3237E-03     47.2573E-03
            3980             227     47.4424E-03     46.5478E-03
            3980            4355     51.6521E-03     51.4616E-03
            3980            4356     52.9667E-03     52.9802E-03
            3981             225     47.1093E-03     47.6704E-03
            3981             226     47.3237E-03     47.2573E-03
            3981            4356     52.9667E-03     52.9802E-03
            3981            4357     54.0251E-03     53.7654E-03
            3982             224     46.0629E-03     48.2340E-03
            3982             225     47.1093E-03     47.6704E-03
            3982            4357     54.0251E-03     53.7654E-03
            3982            4358     53.6867E-03     55.8647E-03
            3983             223     47.3981E-03     48.5025E-03
            3983             224     46.0629E-03     48.2340E-03
            3983            4358     53.6867E-03     55.8647E-03
            3983            4359     56.7264E-03     55.9837E-03
            3984             222     47.5883E-03     46.0769E-03
            3984             223     47.3981E-03     48.5025E-03
            3984            4359     56.7264E-03     55.9837E-03
            3984            4360     56.0718E-03     53.8728E-03
            3985             221     45.6877E-03     45.6906E-03
            3985             222     47.5883E-03     46.0769E-03
            3985            4360     56.0718E-03     53.8728E-03
            3985            4361     51.2291E-03     53.5312E-03
            3986             220     46.1032E-03     45.7053E-03
            3986             221     45.6877E-03     45.6906E-03
            3986            4361     51.2291E-03     53.5312E-03
            3986            4362     53.0192E-03     52.0475E-03
            3987             219     47.1925E-03     44.6595E-03
            3987             220     46.1032E-03     45.7053E-03
            3987            4362     53.0192E-03     52.0475E-03
            3987            4363     55.5493E-03     53.2632E-03
            3988             218     47.7994E-03     45.6936E-03
            3988             219     47.1925E-03     44.6595E-03
            3988            4363     55.5493E-03     53.2632E-03
            3988            4364     56.5719E-03     56.2592E-03
            3989             217     47.5529E-03     46.4866E-03
            3989             218     47.7994E-03     45.6936E-03
            3989            4364     56.5719E-03     56.2592E-03
            3989            4365     58.1078E-03     57.7600E-03
            3990             216     47.4138E-03     47.5043E-03
            3990             217     47.5529E-03     46.4866E-03
            3990            4365     58.1078E-03     57.7600E-03
            3990            4366     59.6970E-03     59.6683E-03
            3991             215     47.0811E-03     48.0149E-03
            3991             216     47.4138E-03     47.5043E-03
            3991            4366     59.6970E-03     59.6683E-03
            3991            4367     60.6955E-03     60.4612E-03
            3992             214     45.5294E-03     48.6139E-03
            3992             215     47.0811E-03     48.0149E-03
            3992            4367     60.6955E-03     60.4612E-03
            3992            4368     59.7701E-03     62.9095E-03
            3993             213     47.2561E-03     48.7116E-03
            3993             214     45.5294E-03     48.6139E-03
            3993            4368     59.7701E-03     62.9095E-03
            3993            4369     63.4542E-03     62.3543E-03
            3994             212     47.3212E-03     45.5250E-03
            3994             213     47.2561E-03     48.7116E-03
            3994            4369     63.4542E-03     62.3543E-03
            3994            4370     62.0631E-03     59.2618E-03
            3995               9     38.9445E-03     38.3878E-03
            3995             212     47.3212E-03     45.5250E-03
            3995             749     52.9100E-03     54.7428E-03
            3995            4370     62.0631E-03     59.2618E-03
            3996             196     23.6807E-03     23.4852E-03
            3996             197     21.3397E-03     21.2225E-03
            3996            4337     46.4013E-03     46.2187E-03
            3996            4371     41.7058E-03     41.6175E-03
            3997            4337     46.4013E-03     46.2187E-03
            3997            4338     46.9620E-03     46.6459E-03
            3997            4371     41.7058E-03     41.6175E-03
            3997            4372     42.5817E-03     41.9942E-03
            3998            4338     46.9620E-03     46.6459E-03
            3998            4339     46.6913E-03     46.1724E-03
            3998            4372     42.5817E-03     41.9942E-03
            3998            4373     42.5911E-03     42.2359E-03
            3999            4339     46.6913E-03     46.1724E-03
            3999            4340     45.9222E-03     45.5487E-03
            3999            4373     42.5911E-03     42.2359E-03
            3999            4374     41.1963E-03     41.4640E-03
            4000            4340     45.9222E-03     45.5487E-03
            4000            4341     46.0497E-03     45.4745E-03
            4000            4374     41.1963E-03     41.4640E-03
            4000            4375     40.7220E-03     40.9123E-03
            4001            4341     46.0497E-03     45.4745E-03
            4001            4342     46.4921E-03     45.8315E-03
            4001            4375     40.7220E-03     40.9123E-03
            4001            4376     41.5710E-03     42.1650E-03
            4002            4342     46.4921E-03     45.8315E-03
            4002            4343     46.7855E-03     46.3459E-03
            4002            4376     41.5710E-03     42.1650E-03
            4002            4377     43.0790E-03     43.7848E-03
            4003            4343     46.7855E-03     46.3459E-03
            4003            4344     47.2873E-03     47.0010E-03
            4003            4377     43.0790E-03     43.7848E-03
            4003            4378     44.8997E-03     45.3983E-03
            4004            4344     47.2873E-03     47.0010E-03
            4004            4345     47.7859E-03     47.8293E-03
            4004            4378     44.8997E-03     45.3983E-03
            4004            4379     46.8213E-03     47.2144E-03
            4005            4345     47.7859E-03     47.8293E-03
            4005            4346     48.5919E-03     48.6759E-03
            4005            4379     46.8213E-03     47.2144E-03
            4005            4380     49.3085E-03     49.0708E-03
            4006            4346     48.5919E-03     48.6759E-03
            4006            4347     49.4327E-03     49.1664E-03
            4006            4380     49.3085E-03     49.0708E-03
            4006            4381     51.8573E-03     50.6476E-03
            4007            4347     49.4327E-03     49.1664E-03
            4007            4348     49.5249E-03     50.6134E-03
            4007            4381     51.8573E-03     50.6476E-03
            4007            4382     53.2994E-03     54.4577E-03
            4008            4348     49.5249E-03     50.6134E-03
            4008            4349     51.7331E-03     51.1638E-03
            4008            4382     53.2994E-03     54.4577E-03
            4008            4383     59.2450E-03     55.9163E-03
            4009            4349     51.7331E-03     51.1638E-03
            4009            4350     51.6444E-03     50.0230E-03
            4009            4383     59.2450E-03     55.9163E-03
            4009            4384     59.3866E-03     57.1072E-03
            4010            4350     51.6444E-03     50.0230E-03
            4010            4351     48.1348E-03     48.9089E-03
            4010            4384     59.3866E-03     57.1072E-03
            4010            4385     51.8617E-03     56.2811E-03
            4011            4351     48.1348E-03     48.9089E-03
            4011            4352     48.1224E-03     47.5023E-03
            4011            4385     51.8617E-03     56.2811E-03
            4011            4386     53.2471E-03     52.8387E-03
            4012            4352     48.1224E-03     47.5023E-03
            4012            4353     49.6004E-03     48.2447E-03
            4012            4386     53.2471E-03     52.8387E-03
            4012            4387     56.6921E-03     56.2419E-03
            4013            4353     49.6004E-03     48.2447E-03
            4013            4354     50.6294E-03     50.1017E-03
            4013            4387     56.6921E-03     56.2419E-03
            4013            4388     58.4986E-03     59.9825E-03
            4014            4354     50.6294E-03     50.1017E-03
            4014            4355     51.6521E-03     51.4616E-03
            4014            4388     58.4986E-03     59.9825E-03
            4014            4389     61.7932E-03     62.0850E-03
            4015            4355     51.6521E-03     51.4616E-03
            4015            4356     52.9667E-03     52.9802E-03
            4015            4389     61.7932E-03     62.0850E-03
            4015            4390     65.2963E-03     64.8149E-03
            4016            4356     52.9667E-03     52.9802E-03
            4016            4357     54.0251E-03     53.7654E-03
            4016            4390     65.2963E-03     64.8149E-03
            4016            4391     68.5622E-03     66.7433E-03
            4017            4357     54.0251E-03     53.7654E-03
            4017            4358     53.6867E-03     55.8647E-03
            4017            4391     68.5622E-03     66.7433E-03
            4017            4392     69.8462E-03     72.0888E-03
            4018            4358     53.6867E-03     55.8647E-03
            4018            4359     56.7264E-03     55.9837E-03
            4018            4392     69.8462E-03     72.0888E-03
            4018            4393     77.9664E-03     72.9619E-03
            4019            4359     56.7264E-03     55.9837E-03
            4019            4360     56.0718E-03     53.8728E-03
            4019            4393     77.9664E-03     72.9619E-03
            4019            4394     76.7281E-03     73.2801E-03
            4020            4360     56.0718E-03     53.8728E-03
            4020            4361     51.2291E-03     53.5312E-03
            4020            4394     76.7281E-03     73.2801E-03
            4020            4395     65.5862E-03     74.0425E-03
            4021            4361     51.2291E-03     53.5312E-03
            4021            4362     53.0192E-03     52.0475E-03
            4021            4395     65.5862E-03     74.0425E-03
            4021            4396     71.1237E-03     69.7835E-03
            4022            4362     53.0192E-03     52.0475E-03
            4022            4363     55.5493E-03     53.2632E-03
            4022            4396     71.1237E-03     69.7835E-03
            4022            4397     76.4198E-03     74.3046E-03
            4023            4363     55.5493E-03     53.2632E-03
            4023            4364     56.5719E-03     56.2592E-03
            4023            4397     76.4198E-03     74.3046E-03
            4023            4398     76.8069E-03     79.3357E-03
            4024            4364     56.5719E-03     56.2592E-03
            4024            4365     58.1078E-03     57.7600E-03
            4024            4398     76.8069E-03     79.3357E-03
            4024            4399     80.9019E-03     80.6775E-03
            4025            4365     58.1078E-03     57.7600E-03
            4025            4366     59.6970E-03     59.6683E-03
            4025            4399     80.9019E-03     80.6775E-03
            4025            4400     84.6756E-03     83.7188E-03
            4026            4366     59.6970E-03     59.6683E-03
            4026            4367     60.6955E-03     60.4612E-03
            4026            4400     84.6756E-03     83.7188E-03
            4026            4401     87.9667E-03     85.5396E-03
            4027            4367     60.6955E-03     60.4612E-03
            4027            4368     59.7701E-03     62.9095E-03
            4027            4401     87.9667E-03     85.5396E-03
            4027            4402     88.6573E-03     91.9125E-03
            4028            4368     59.7701E-03     62.9095E-03
            4028            4369     63.4542E-03     62.3543E-03
            4028            4402     88.6573E-03     91.9125E-03
            4028            4403     98.4007E-03     91.8578E-03
            4029            4369     63.4542E-03     62.3543E-03
            4029            4370     62.0631E-03     59.2618E-03
            4029            4403     98.4007E-03     91.8578E-03
            4029            4404     95.6154E-03     91.1827E-03
            4030             749     52.9100E-03     54.7428E-03
            4030             750     82.6900E-03     90.0935E-03
            4030            4370     62.0631E-03     59.2618E-03
            4030            4404     95.6154E-03     91.1827E-03
            4031             197     21.3397E-03     21.2225E-03
            4031             198     17.4021E-03     17.3857E-03
            4031            4371     41.7058E-03     41.6175E-03
            4031            4405     33.9243E-03     34.4732E-03
            4032            4371     41.7058E-03     41.6175E-03
            4032            4372     42.5817E-03     41.9942E-03
            4032            4405     33.9243E-03     34.4732E-03
            4032            4406     35.5717E-03     35.0990E-03
            4033            4372     42.5817E-03     41.9942E-03
            4033            4373     42.5911E-03     42.2359E-03
            4033            4406     35.5717E-03     35.0990E-03
            4033            4407     36.0856E-03     35.9329E-03
            4034            4373     42.5911E-03     42.2359E-03
            4034            4374     41.1963E-03     41.4640E-03
            4034            4407     36.0856E-03     35.9329E-03
            4034            4408     34.1674E-03     35.6967E-03
            4035            4374     41.1963E-03     41.4640E-03
            4035            4375     40.7220E-03     40.9123E-03
            4035            4408     34.1674E-03     35.6967E-03
            4035            4409     33.9493E-03     35.3697E-03
            4036            4375     40.7220E-03     40.9123E-03
            4036            4376     41.5710E-03     42.1650E-03
            4036            4409     33.9493E-03     35.3697E-03
            4036            4410     35.7547E-03     37.5558E-03
            4037            4376     41.5710E-03     42.1650E-03
            4037            4377     43.0790E-03     43.7848E-03
            4037            4410     35.7547E-03     37.5558E-03
            4037            4411     38.4048E-03     39.6286E-03
            4038            4377     43.0790E-03     43.7848E-03
            4038            4378     44.8997E-03     45.3983E-03
            4038            4411     38.4048E-03     39.6286E-03
            4038            4412     41.6358E-03     41.8970E-03
            4039            4378     44.8997E-03     45.3983E-03
            4039            4379     46.8213E-03     47.2144E-03
            4039            4412     41.6358E-03     41.8970E-03
            4039            4413     44.7873E-03     45.3383E-03
            4040            4379     46.8213E-03     47.2144E-03
            4040            4380     49.3085E-03     49.0708E-03
            4040            4413     44.7873E-03     45.3383E-03
            4040            4414     49.2544E-03     49.0896E-03
            4041            4380     49.3085E-03     49.0708E-03
            4041            4381     51.8573E-03     50.6476E-03
            4041            4414     49.2544E-03     49.0896E-03
            4041            4415     53.8154E-03     52.6267E-03
            4042            4381     51.8573E-03     50.6476E-03
            4042            4382     53.2994E-03     54.4577E-03
            4042            4415     53.8154E-03     52.6267E-03
            4042            4416     56.6253E-03     59.9782E-03
            4043            4382     53.2994E-03     54.4577E-03
            4043            4383     59.2450E-03     55.9163E-03
            4043            4416     56.6253E-03     59.9782E-03
            4043            4417     67.5538E-03     61.9990E-03
            4044            4383     59.2450E-03     55.9163E-03
            4044            4384     59.3866E-03     57.1072E-03
            4044            4417     67.5538E-03     61.9990E-03
            4044            4418     68.7855E-03     66.6234E-03
            4045            4384     59.3866E-03     57.1072E-03
            4045            4385     51.8617E-03     56.2811E-03
            4045            4418     68.7855E-03     66.6234E-03
            4045            4419     57.9463E-03     69.3106E-03
            4046            4385     51.8617E-03     56.2811E-03
            4046            4386     53.2471E-03     52.8387E-03
            4046            4419     57.9463E-03     69.3106E-03
            4046            4420     62.5110E-03     62.8286E-03
            4047            4386     53.2471E-03     52.8387E-03
            4047            4387     56.6921E-03     56.2419E-03
            4047            4420     62.5110E-03     62.8286E-03
            4047            4421     67.1915E-03     66.4371E-03
            4048            4387     56.6921E-03     56.2419E-03
            4048            4388     58.4986E-03     59.9825E-03
            4048            4421     67.1915E-03     66.4371E-03
            4048            4422     67.5687E-03     70.4073E-03
            4049            4388     58.4986E-03     59.9825E-03
            4049            4389     61.7932E-03     62.0850E-03
            4049            4422     67.5687E-03     70.4073E-03
            4049            4423     71.9769E-03     72.3471E-03
            4050            4389     61.7932E-03     62.0850E-03
            4050            4390     65.2963E-03     64.8149E-03
            4050            4423     71.9769E-03     72.3471E-03
            4050            4424     76.9099E-03     76.7965E-03
            4051            4390     65.2963E-03     64.8149E-03
            4051            4391     68.5622E-03     66.7433E-03
            4051            4424     76.9099E-03     76.7965E-03
            4051            4425     81.9112E-03     80.1620E-03
            4052            4391     68.5622E-03     66.7433E-03
            4052            4392     69.8462E-03     72.0888E-03
            4052            4425     81.9112E-03     80.1620E-03
            4052            4426     84.6168E-03     89.5723E-03
            4053            4392     69.8462E-03     72.0888E-03
            4053            4393     77.9664E-03     72.9619E-03
            4053            4426     84.6168E-03     89.5723E-03
            4053            4427     99.5048E-03     91.0446E-03
            4054            4393     77.9664E-03     72.9619E-03
            4054            4394     76.7281E-03     73.2801E-03
            4054            4427     99.5048E-03     91.0446E-03
            4054            4428     99.5210E-03     96.0670E-03
            4055            4394     76.7281E-03     73.2801E-03
            4055            4395     65.5862E-03     74.0425E-03
            4055            4428     99.5210E-03     96.0670E-03
            4055            4429     83.6324E-03     102.817E-03
            4056            4395     65.5862E-03     74.0425E-03
            4056            4396     71.1237E-03     69.7835E-03
            4056            4429     83.6324E-03     102.817E-03
            4056            4430     94.4703E-03     93.7766E-03
            4057            4396     71.1237E-03     69.7835E-03
            4057            4397     76.4198E-03     74.3046E-03
            4057            4430     94.4703E-03     93.7766E-03
            4057            4431     100.589E-03     97.0376E-03
            4058            4397     76.4198E-03     74.3046E-03
            4058            4398     76.8069E-03     79.3357E-03
            4058            4431     100.589E-03     97.0376E-03
            4058            4432     97.0386E-03     101.786E-03
            4059            4398     76.8069E-03     79.3357E-03
            4059            4399     80.9019E-03     80.6775E-03
            4059            4432     97.0386E-03     101.786E-03
            4059            4433     101.803E-03     101.762E-03
            4060            4399     80.9019E-03     80.6775E-03
            4060            4400     84.6756E-03     83.7188E-03
            4060            4433     101.803E-03     101.762E-03
            4060            4434     106.594E-03     106.400E-03
            4061            4400     84.6756E-03     83.7188E-03
            4061            4401     87.9667E-03     85.5396E-03
            4061            4434     106.594E-03     106.400E-03
            4061            4435     111.499E-03     109.356E-03
            4062            4401     87.9667E-03     85.5396E-03
            4062            4402     88.6573E-03     91.9125E-03
            4062            4435     111.499E-03     109.356E-03
            4062            4436     113.699E-03     120.365E-03
            4063            4402     88.6573E-03     91.9125E-03
            4063            4403     98.4007E-03     91.8578E-03
            4063            4436     113.699E-03     120.365E-03
            4063            4437     131.912E-03     121.042E-03
            4064            4403     98.4007E-03     91.8578E-03
            4064            4404     95.6154E-03     91.1827E-03
            4064            4437     131.912E-03     121.042E-03
            4064            4438     130.543E-03     126.161E-03
            4065             750     82.6900E-03     90.0935E-03
            4065             751     112.482E-03     127.838E-03
            4065            4404     95.6154E-03     91.1827E-03
            4065            4438     130.543E-03     126.161E-03
            4066             198     17.4021E-03     17.3857E-03
            4066             199     12.4284E-03     12.4675E-03
            4066            4405     33.9243E-03     34.4732E-03
            4066            4439     23.7879E-03     24.9558E-03
            4067            4405     33.9243E-03     34.4732E-03
            4067            4406     35.5717E-03     35.0990E-03
            4067            4439     23.7879E-03     24.9558E-03
            4067            4440     26.9030E-03     25.6030E-03
            4068            4406     35.5717E-03     35.0990E-03
            4068            4407     36.0856E-03     35.9329E-03
            4068            4440     26.9030E-03     25.6030E-03
            4068            4441     27.8958E-03     28.0053E-03
            4069            4407     36.0856E-03     35.9329E-03
            4069            4408     34.1674E-03     35.6967E-03
            4069            4441     27.8958E-03     28.0053E-03
            4069            4442     26.8594E-03     29.9782E-03
            4070            4408     34.1674E-03     35.6967E-03
            4070            4409     33.9493E-03     35.3697E-03
            4070            4442     26.8594E-03     29.9782E-03
            4070            4443     28.5875E-03     29.6529E-03
            4071            4409     33.9493E-03     35.3697E-03
            4071            4410     35.7547E-03     37.5558E-03
            4071            4443     28.5875E-03     29.6529E-03
            4071            4444     29.9858E-03     31.3452E-03
            4072            4410     35.7547E-03     37.5558E-03
            4072            4411     38.4048E-03     39.6286E-03
            4072            4444     29.9858E-03     31.3452E-03
            4072            4445     32.9723E-03     33.8410E-03
            4073            4411     38.4048E-03     39.6286E-03
            4073            4412     41.6358E-03     41.8970E-03
            4073            4445     32.9723E-03     33.8410E-03
            4073            4446     37.6459E-03     38.0681E-03
            4074            4412     41.6358E-03     41.8970E-03
            4074            4413     44.7873E-03     45.3383E-03
            4074            4446     37.6459E-03     38.0681E-03
            4074            4447     42.3409E-03     43.9700E-03
            4075            4413     44.7873E-03     45.3383E-03
            4075            4414     49.2544E-03     49.0896E-03
            4075            4447     42.3409E-03     43.9700E-03
            4075            4448     48.9762E-03     50.3217E-03
            4076            4414     49.2544E-03     49.0896E-03
            4076            4415     53.8154E-03     52.6267E-03
            4076            4448     48.9762E-03     50.3217E-03
            4076            4449     56.1308E-03     55.9234E-03
            4077            4415     53.8154E-03     52.6267E-03
            4077            4416     56.6253E-03     59.9782E-03
            4077            4449     56.1308E-03     55.9234E-03
            4077            4450     60.1102E-03     66.8647E-03
            4078            4416     56.6253E-03     59.9782E-03
            4078            4417     67.5538E-03     61.9990E-03
            4078            4450     60.1102E-03     66.8647E-03
            4078            4451     75.4923E-03     70.4704E-03
            4079            4417     67.5538E-03     61.9990E-03
            4079            4418     68.7855E-03     66.6234E-03
            4079            4451     75.4923E-03     70.4704E-03
            4079            4452     77.8443E-03     77.2043E-03
            4080            4418     68.7855E-03     66.6234E-03
            4080            4419     57.9463E-03     69.3106E-03
            4080            4452     77.8443E-03     77.2043E-03
            4080            4453     65.1004E-03     82.6209E-03
            4081            4419     57.9463E-03     69.3106E-03
            4081            4420     62.5110E-03     62.8286E-03
            4081            4453     65.1004E-03     82.6209E-03
            4081            4454     72.4671E-03     72.7901E-03
            4082            4420     62.5110E-03     62.8286E-03
            4082            4421     67.1915E-03     66.4371E-03
            4082            4454     72.4671E-03     72.7901E-03
            4082            4455     75.2890E-03     74.6103E-03
            4083            4421     67.1915E-03     66.4371E-03
            4083            4422     67.5687E-03     70.4073E-03
            4083            4455     75.2890E-03     74.6103E-03
            4083            4456     74.0653E-03     78.8784E-03
            4084            4422     67.5687E-03     70.4073E-03
            4084            4423     71.9769E-03     72.3471E-03
            4084            4456     74.0653E-03     78.8784E-03
            4084            4457     79.9235E-03     81.9211E-03
            4085            4423     71.9769E-03     72.3471E-03
            4085            4424     76.9099E-03     76.7965E-03
            4085            4457     79.9235E-03     81.9211E-03
            4085            4458     85.8413E-03     89.0417E-03
            4086            4424     76.9099E-03     76.7965E-03
            4086            4425     81.9112E-03     80.1620E-03
            4086            4458     85.8413E-03     89.0417E-03
            4086            4459     93.1955E-03     93.6333E-03
            4087            4425     81.9112E-03     80.1620E-03
            4087            4426     84.6168E-03     89.5723E-03
            4087            4459     93.1955E-03     93.6333E-03
            4087            4460     96.2887E-03     106.628E-03
            4088            4426     84.6168E-03     89.5723E-03
            4088            4427     99.5048E-03     91.0446E-03
            4088            4460     96.2887E-03     106.628E-03
            4088            4461     116.604E-03     109.496E-03
            4089            4427     99.5048E-03     91.0446E-03
            4089            4428     99.5210E-03     96.0670E-03
            4089            4461     116.604E-03     109.496E-03
            4089            4462     118.721E-03     117.606E-03
            4090            4428     99.5210E-03     96.0670E-03
            4090            4429     83.6324E-03     102.817E-03
            4090            4462     118.721E-03     117.606E-03
            4090            4463     100.399E-03     129.051E-03
            4091            4429     83.6324E-03     102.817E-03
            4091            4430     94.4703E-03     93.7766E-03
            4091            4463     100.399E-03     129.051E-03
            4091            4464     115.212E-03     115.125E-03
            4092            4430     94.4703E-03     93.7766E-03
            4092            4431     100.589E-03     97.0376E-03
            4092            4464     115.212E-03     115.125E-03
            4092            4465     118.239E-03     115.324E-03
            4093            4431     100.589E-03     97.0376E-03
            4093            4432     97.0386E-03     101.786E-03
            4093            4465     118.239E-03     115.324E-03
            4093            4466     111.438E-03     120.047E-03
            4094            4432     97.0386E-03     101.786E-03
            4094            4433     101.803E-03     101.762E-03
            4094            4466     111.438E-03     120.047E-03
            4094            4467     117.797E-03     120.438E-03
            4095            4433     101.803E-03     101.762E-03
            4095            4434     106.594E-03     106.400E-03
            4095            4467     117.797E-03     120.438E-03
            4095            4468     123.052E-03     127.864E-03
            4096            4434     106.594E-03     106.400E-03
            4096            4435     111.499E-03     109.356E-03
            4096            4468     123.052E-03     127.864E-03
            4096            4469     130.295E-03     131.450E-03
            4097            4435     111.499E-03     109.356E-03
            4097            4436     113.699E-03     120.365E-03
            4097            4469     130.295E-03     131.450E-03
            4097            4470     132.376E-03     146.134E-03
            4098            4436     113.699E-03     120.365E-03
            4098            4437     131.912E-03     121.042E-03
            4098            4470     132.376E-03     146.134E-03
            4098            4471     157.091E-03     148.173E-03
            4099            4437     131.912E-03     121.042E-03
            4099            4438     130.543E-03     126.161E-03
            4099            4471     157.091E-03     148.173E-03
            4099            4472     158.772E-03     157.314E-03
            4100             751     112.482E-03     127.838E-03
            4100             752     136.263E-03     158.996E-03
            4100            4438     130.543E-03     126.161E-03
            4100            4472     158.772E-03     157.314E-03
            4101             199     12.4284E-03     12.4675E-03
            4101             200     7.61204E-03     9.76557E-03
            4101            4439     23.7879E-03     24.9558E-03
            4101            4473     12.4290E-03     16.1955E-03
            4102            4439     23.7879E-03     24.9558E-03
            4102            4440     26.9030E-03     25.6030E-03
            4102            4473     12.4290E-03     16.1955E-03
            4102            4474     18.0779E-03     15.4933E-03
            4103            4440     26.9030E-03     25.6030E-03
            4103            4441     27.8958E-03     28.0053E-03
            4103            4474     18.0779E-03     15.4933E-03
            4103            4475     24.5217E-03     24.6715E-03
            4104            4441     27.8958E-03     28.0053E-03
            4104            4442     26.8594E-03     29.9782E-03
            4104            4475     24.5217E-03     24.6715E-03
            4104            4476     22.1914E-03     25.9788E-03
            4105            4442     26.8594E-03     29.9782E-03
            4105            4443     28.5875E-03     29.6529E-03
            4105            4476     22.1914E-03     25.9788E-03
            4105            4477     20.4292E-03     19.8259E-03
            4106            4443     28.5875E-03     29.6529E-03
            4106            4444     29.9858E-03     31.3452E-03
            4106            4477     20.4292E-03     19.8259E-03
            4106            4478     22.8461E-03     22.7088E-03
            4107            4444     29.9858E-03     31.3452E-03
            4107            4445     32.9723E-03     33.8410E-03
            4107            4478     22.8461E-03     22.7088E-03
            4107            4479     28.6946E-03     28.5484E-03
            4108            4445     32.9723E-03     33.8410E-03
            4108            4446     37.6459E-03     38.0681E-03
            4108            4479     28.6946E-03     28.5484E-03
            4108            4480     35.6870E-03     36.0777E-03
            4109            4446     37.6459E-03     38.0681E-03
            4109            4447     42.3409E-03     43.9700E-03
            4109            4480     35.6870E-03     36.0777E-03
            4109            4481     42.9880E-03     43.9395E-03
            4110            4447     42.3409E-03     43.9700E-03
            4110            4448     48.9762E-03     50.3217E-03
            4110            4481     42.9880E-03     43.9395E-03
            4110            4482     50.9516E-03     52.3828E-03
            4111            4448     48.9762E-03     50.3217E-03
            4111            4449     56.1308E-03     55.9234E-03
            4111            4482     50.9516E-03     52.3828E-03
            4111            4483     60.1087E-03     59.4084E-03
            4112            4449     56.1308E-03     55.9234E-03
            4112            4450     60.1102E-03     66.8647E-03
            4112            4483     60.1087E-03     59.4084E-03
            4112            4484     65.7344E-03     71.5665E-03
            4113            4450     60.1102E-03     66.8647E-03
            4113            4451     75.4923E-03     70.4704E-03
            4113            4484     65.7344E-03     71.5665E-03
            4113            4485     82.1249E-03     78.0045E-03
            4114            4451     75.4923E-03     70.4704E-03
            4114            4452     77.8443E-03     77.2043E-03
            4114            4485     82.1249E-03     78.0045E-03
            4114            4486     88.9492E-03     88.1720E-03
            4115            4452     77.8443E-03     77.2043E-03
            4115            4453     65.1004E-03     82.6209E-03
            4115            4486     88.9492E-03     88.1720E-03
            4115            4487     74.0665E-03     88.1364E-03
            4116            4453     65.1004E-03     82.6209E-03
            4116            4454     72.4671E-03     72.7901E-03
            4116            4487     74.0665E-03     88.1364E-03
            4116            4488     74.7617E-03     72.2919E-03
            4117            4454     72.4671E-03     72.7901E-03
            4117            4455     75.2890E-03     74.6103E-03
            4117            4488     74.7617E-03     72.2919E-03
            4117            4489     77.9597E-03     76.1370E-03
            4118            4455     75.2890E-03     74.6103E-03
            4118            4456     74.0653E-03     78.8784E-03
            4118            4489     77.9597E-03     76.1370E-03
            4118            4490     79.8020E-03     83.3236E-03
            4119            4456     74.0653E-03     78.8784E-03
            4119            4457     79.9235E-03     81.9211E-03
            4119            4490     79.8020E-03     83.3236E-03
            4119            4491     88.0228E-03     88.8976E-03
            4120            4457     79.9235E-03     81.9211E-03
            4120            4458     85.8413E-03     89.0417E-03
            4120            4491     88.0228E-03     88.8976E-03
            4120            4492     94.9349E-03     97.8948E-03
            4121            4458     85.8413E-03     89.0417E-03
            4121            4459     93.1955E-03     93.6333E-03
            4121            4492     94.9349E-03     97.8948E-03
            4121            4493     104.227E-03     103.731E-03
            4122            4459     93.1955E-03     93.6333E-03
            4122            4460     96.2887E-03     106.628E-03
            4122            4493     104.227E-03     103.731E-03
            4122            4494     108.476E-03     117.222E-03
            4123            4460     96.2887E-03     106.628E-03
            4123            4461     116.604E-03     109.496E-03
            4123            4494     108.476E-03     117.222E-03
            4123            4495     128.531E-03     122.725E-03
            4124            4461     116.604E-03     109.496E-03
            4124            4462     118.721E-03     117.606E-03
            4124            4495     128.531E-03     122.725E-03
            4124            4496     135.825E-03     134.073E-03
            4125            4462     118.721E-03     117.606E-03
            4125            4463     100.399E-03     129.051E-03
            4125            4496     135.825E-03     134.073E-03
            4125            4497     117.291E-03     140.155E-03
            4126            4463     100.399E-03     129.051E-03
            4126            4464     115.212E-03     115.125E-03
            4126            4497     117.291E-03     140.155E-03
            4126            4498     124.353E-03     120.897E-03
            4127            4464     115.212E-03     115.125E-03
            4127            4465     118.239E-03     115.324E-03
            4127            4498     124.353E-03     120.897E-03
            4127            4499     126.471E-03     122.787E-03
            4128            4465     118.239E-03     115.324E-03
            4128            4466     111.438E-03     120.047E-03
            4128            4499     126.471E-03     122.787E-03
            4128            4500     123.479E-03     130.106E-03
            4129            4466     111.438E-03     120.047E-03
            4129            4467     117.797E-03     120.438E-03
            4129            4500     123.479E-03     130.106E-03
            4129            4501     132.271E-03     133.228E-03
            4130            4467     117.797E-03     120.438E-03
            4130            4468     123.052E-03     127.864E-03
            4130            4501     132.271E-03     133.228E-03
            4130            4502     138.083E-03     142.459E-03
            4131            4468     123.052E-03     127.864E-03
            4131            4469     130.295E-03     131.450E-03
            4131            4502     138.083E-03     142.459E-03
            4131            4503     147.300E-03     146.992E-03
            4132            4469     130.295E-03     131.450E-03
            4132            4470     132.376E-03     146.134E-03
            4132            4503     147.300E-03     146.992E-03
            4132            4504     150.086E-03     161.566E-03
            4133            4470     132.376E-03     146.134E-03
            4133            4471     157.091E-03     148.173E-03
            4133            4504     150.086E-03     161.566E-03
            4133            4505     173.409E-03     166.014E-03
            4134            4471     157.091E-03     148.173E-03
            4134            4472     158.772E-03     157.314E-03
            4134            4505     173.409E-03     166.014E-03
            4134            4506     180.993E-03     178.281E-03
            4135             752     136.263E-03     158.996E-03
            4135             753     157.866E-03     177.689E-03
            4135            4472     158.772E-03     157.314E-03
            4135            4506     180.993E-03     178.281E-03
            4136              13     4.95143E-03     8.73621E-03
            4136             200     7.61204E-03     9.76557E-03
            4136             787     7.52781E-03     12.2347E-03
            4136            4473     12.4290E-03     16.1955E-03
            4137             786     14.0913E-03     11.7364E-03
            4137             787     7.52781E-03     12.2347E-03
            4137            4473     12.4290E-03     16.1955E-03
            4137            4474     18.0779E-03     15.4933E-03
            4138             785     23.6366E-03     24.6189E-03
            4138             786     14.0913E-03     11.7364E-03
            4138            4474     18.0779E-03     15.4933E-03
            4138            4475     24.5217E-03     24.6715E-03
            4139             784     21.7066E-03     25.2889E-03
            4139             785     23.6366E-03     24.6189E-03
            4139            4475     24.5217E-03     24.6715E-03
            4139            4476     22.1914E-03     25.9788E-03
            4140             783     19.3932E-03     18.5606E-03
            4140             784     21.7066E-03     25.2889E-03
            4140            4476     22.1914E-03     25.9788E-03
            4140            4477     20.4292E-03     19.8259E-03
            4141             782     25.3328E-03     24.5253E-03
            4141             783     19.3932E-03     18.5606E-03
            4141            4477     20.4292E-03     19.8259E-03
            4141            4478     22.8461E-03     22.7088E-03
            4142             781     32.9369E-03     32.1101E-03
            4142             782     25.3328E-03     24.5253E-03
            4142            4478     22.8461E-03     22.7088E-03
            4142            4479     28.6946E-03     28.5484E-03
            4143             780     40.1441E-03     40.0410E-03
            4143             781     32.9369E-03     32.1101E-03
            4143            4479     28.6946E-03     28.5484E-03
            4143            4480     35.6870E-03     36.0777E-03
            4144             779     47.7281E-03     47.4675E-03
            4144             780     40.1441E-03     40.0410E-03
            4144            4480     35.6870E-03     36.0777E-03
            4144            4481     42.9880E-03     43.9395E-03
            4145             778     54.7821E-03     55.3232E-03
            4145             779     47.7281E-03     47.4675E-03
            4145            4481     42.9880E-03     43.9395E-03
            4145            4482     50.9516E-03     52.3828E-03
            4146             777     62.9236E-03     62.1640E-03
            4146             778     54.7821E-03     55.3232E-03
            4146            4482     50.9516E-03     52.3828E-03
            4146            4483     60.1087E-03     59.4084E-03
            4147             776     69.2957E-03     71.8312E-03
            4147             777     62.9236E-03     62.1640E-03
            4147            4483     60.1087E-03     59.4084E-03
            4147            4484     65.7344E-03     71.5665E-03
            4148             775     80.7920E-03     78.4918E-03
            4148             776     69.2957E-03     71.8312E-03
            4148            4484     65.7344E-03     71.5665E-03
            4148            4485     82.1249E-03     78.0045E-03
            4149             774     89.3837E-03     89.4591E-03
            4149             775     80.7920E-03     78.4918E-03
            4149            4485     82.1249E-03     78.0045E-03
            4149            4486     88.9492E-03     88.1720E-03
            4150             773     77.9810E-03     83.8510E-03
            4150             774     89.3837E-03     89.4591E-03
            4150            4486     88.9492E-03     88.1720E-03
            4150            4487     74.0665E-03     88.1364E-03
            4151             772     73.1507E-03     69.6317E-03
            4151             773     77.9810E-03     83.8510E-03
            4151            4487     74.0665E-03     88.1364E-03
            4151            4488     74.7617E-03     72.2919E-03
            4152             771     80.3170E-03     78.3642E-03
            4152             772     73.1507E-03     69.6317E-03
            4152            4488     74.7617E-03     72.2919E-03
            4152            4489     77.9597E-03     76.1370E-03
            4153             770     86.5876E-03     87.2405E-03
            4153             771     80.3170E-03     78.3642E-03
            4153            4489     77.9597E-03     76.1370E-03
            4153            4490     79.8020E-03     83.3236E-03
            4154             769     94.6320E-03     94.0951E-03
            4154             770     86.5876E-03     87.2405E-03
            4154            4490     79.8020E-03     83.3236E-03
            4154            4491     88.0228E-03     88.8976E-03
            4155             768     101.431E-03     102.305E-03
            4155             769     94.6320E-03     94.0951E-03
            4155            4491     88.0228E-03     88.8976E-03
            4155            4492     94.9349E-03     97.8948E-03
            4156             767     109.591E-03     108.541E-03
            4156             768     101.431E-03     102.305E-03
            4156            4492     94.9349E-03     97.8948E-03
            4156            4493     104.227E-03     103.731E-03
            4157             766     115.218E-03     118.645E-03
            4157             767     109.591E-03     108.541E-03
            4157            4493     104.227E-03     103.731E-03
            4157            4494     108.476E-03     117.222E-03
            4158             765     127.706E-03     124.237E-03
            4158             766     115.218E-03     118.645E-03
            4158            4494     108.476E-03     117.222E-03
            4158            4495     128.531E-03     122.725E-03
            4159             764     136.276E-03     135.108E-03
            4159             765     127.706E-03     124.237E-03
            4159            4495     128.531E-03     122.725E-03
            4159            4496     135.825E-03     134.073E-03
            4160             763     124.227E-03     133.326E-03
            4160             764     136.276E-03     135.108E-03
            4160            4496     135.825E-03     134.073E-03
            4160            4497     117.291E-03     140.155E-03
            4161             762     122.655E-03     118.058E-03
            4161             763     124.227E-03     133.326E-03
            4161            4497     117.291E-03     140.155E-03
            4161            4498     124.353E-03     120.897E-03
            4162             761     128.943E-03     125.777E-03
            4162             762     122.655E-03     118.058E-03
            4162            4498     124.353E-03     120.897E-03
            4162            4499     126.471E-03     122.787E-03
            4163             760     133.133E-03     134.867E-03
            4163             761     128.943E-03     125.777E-03
            4163            4499     126.471E-03     122.787E-03
            4163            4500     123.479E-03     130.106E-03
            4164             759     141.238E-03     140.354E-03
            4164             760     133.133E-03     134.867E-03
            4164            4500     123.479E-03     130.106E-03
            4164            4501     132.271E-03     133.228E-03
            4165             758     147.195E-03     148.509E-03
            4165             759     141.238E-03     140.354E-03
            4165            4501     132.271E-03     133.228E-03
            4165            4502     138.083E-03     142.459E-03
            4166             757     155.123E-03     153.772E-03
            4166             758     147.195E-03     148.509E-03
            4166            4502     138.083E-03     142.459E-03
            4166            4503     147.300E-03     146.992E-03
            4167             756     159.709E-03     164.027E-03
            4167             757     155.123E-03     153.772E-03
            4167            4503     147.300E-03     146.992E-03
            4167            4504     150.086E-03     161.566E-03
            4168             755     172.909E-03     168.320E-03
            4168             756     159.709E-03     164.027E-03
            4168            4504     150.086E-03     161.566E-03
            4168            4505     173.409E-03     166.014E-03
            4169             754     181.174E-03     178.860E-03
            4169             755     172.909E-03     168.320E-03
            4169            4505     173.409E-03     166.014E-03
            4169            4506     180.993E-03     178.281E-03
            4170              34     166.621E-03     176.977E-03
            4170             753     157.866E-03     177.689E-03
            4170             754     181.174E-03     178.860E-03
            4170            4506     180.993E-03     178.281E-03
            4171              34     166.621E-03     176.977E-03
            4171             754     181.174E-03     178.860E-03
            4171             788     154.326E-03     159.355E-03
            4171            4507     159.283E-03     161.861E-03
            4172              35     140.337E-03     143.367E-03
            4172             788     154.326E-03     159.355E-03
            4172             789     139.277E-03     142.774E-03
            4172            4507     159.283E-03     161.861E-03
            4173             754     181.174E-03     178.860E-03
            4173             755     172.909E-03     168.320E-03
            4173            4507     159.283E-03     161.861E-03
            4173            4508     159.748E-03     160.654E-03
            4174             789     139.277E-03     142.774E-03
            4174             790     144.580E-03     147.071E-03
            4174            4507     159.283E-03     161.861E-03
            4174            4508     159.748E-03     160.654E-03
            4175             755     172.909E-03     168.320E-03
            4175             756     159.709E-03     164.027E-03
            4175            4508     159.748E-03     160.654E-03
            4175            4509     155.053E-03     157.929E-03
            4176             790     144.580E-03     147.071E-03
            4176             791     144.695E-03     147.359E-03
            4176            4508     159.748E-03     160.654E-03
            4176            4509     155.053E-03     157.929E-03
            4177             756     159.709E-03     164.027E-03
            4177             757     155.123E-03     153.772E-03
            4177            4509     155.053E-03     157.929E-03
            4177            4510     150.673E-03     152.630E-03
            4178             791     144.695E-03     147.359E-03
            4178             792     142.043E-03     145.134E-03
            4178            4509     155.053E-03     157.929E-03
            4178            4510     150.673E-03     152.630E-03
            4179             757     155.123E-03     153.772E-03
            4179             758     147.195E-03     148.509E-03
            4179            4510     150.673E-03     152.630E-03
            4179            4511     145.396E-03     147.617E-03
            4180             792     142.043E-03     145.134E-03
            4180             793     138.821E-03     141.490E-03
            4180            4510     150.673E-03     152.630E-03
            4180            4511     145.396E-03     147.617E-03
            4181             758     147.195E-03     148.509E-03
            4181             759     141.238E-03     140.354E-03
            4181            4511     145.396E-03     147.617E-03
            4181            4512     140.245E-03     141.956E-03
            4182             793     138.821E-03     141.490E-03
            4182             794     134.617E-03     137.380E-03
            4182            4511     145.396E-03     147.617E-03
            4182            4512     140.245E-03     141.956E-03
            4183             759     141.238E-03     140.354E-03
            4183             760     133.133E-03     134.867E-03
            4183            4512     140.245E-03     141.956E-03
            4183            4513     134.220E-03     136.068E-03
            4184             794     134.617E-03     137.380E-03
            4184             795     129.931E-03     132.172E-03
            4184            4512     140.245E-03     141.956E-03
            4184            4513     134.220E-03     136.068E-03
            4185             760     133.133E-03     134.867E-03
            4185             761     128.943E-03     125.777E-03
            4185            4513     134.220E-03     136.068E-03
            4185            4514     127.599E-03     128.292E-03
            4186             795     129.931E-03     132.172E-03
            4186             796     124.505E-03     125.617E-03
            4186            4513     134.220E-03     136.068E-03
            4186            4514     127.599E-03     128.292E-03
            4187             761     128.943E-03     125.777E-03
            4187             762     122.655E-03     118.058E-03
            4187            4514     127.599E-03     128.292E-03
            4187            4515     120.131E-03     118.310E-03
            4188             796     124.505E-03     125.617E-03
            4188             797     118.543E-03     117.137E-03
            4188            4514     127.599E-03     128.292E-03
            4188            4515     120.131E-03     118.310E-03
            4189             762     122.655E-03     118.058E-03
            4189             763     124.227E-03     133.326E-03
            4189            4515     120.131E-03     118.310E-03
            4189            4516     115.462E-03     117.763E-03
            4190             797     118.543E-03     117.137E-03
            4190             798     106.251E-03     106.586E-03
            4190            4515     120.131E-03     118.310E-03
            4190            4516     115.462E-03     117.763E-03
            4191             763     124.227E-03     133.326E-03
            4191             764     136.276E-03     135.108E-03
            4191            4516     115.462E-03     117.763E-03
            4191            4517     117.375E-03     120.031E-03
            4192             798     106.251E-03     106.586E-03
            4192             799     99.6922E-03     103.081E-03
            4192            4516     115.462E-03     117.763E-03
            4192            4517     117.375E-03     120.031E-03
            4193             764     136.276E-03     135.108E-03
            4193             765     127.706E-03     124.237E-03
            4193            4517     117.375E-03     120.031E-03
            4193            4518     116.383E-03     116.996E-03
            4194             799     99.6922E-03     103.081E-03
            4194             800     103.198E-03     105.177E-03
            4194            4517     117.375E-03     120.031E-03
            4194            4518     116.383E-03     116.996E-03
            4195             765     127.706E-03     124.237E-03
            4195             766     115.218E-03     118.645E-03
            4195            4518     116.383E-03     116.996E-03
            4195            4519     110.964E-03     113.088E-03
            4196             800     103.198E-03     105.177E-03
            4196             801     102.220E-03     104.124E-03
            4196            4518     116.383E-03     116.996E-03
            4196            4519     110.964E-03     113.088E-03
            4197             766     115.218E-03     118.645E-03
            4197             767     109.591E-03     108.541E-03
            4197            4519     110.964E-03     113.088E-03
            4197            4520     105.935E-03     107.284E-03
            4198             801     102.220E-03     104.124E-03
            4198             802     98.9422E-03     101.114E-03
            4198            4519     110.964E-03     113.088E-03
            4198            4520     105.935E-03     107.284E-03
            4199             767     109.591E-03     108.541E-03
            4199             768     101.431E-03     102.305E-03
            4199            4520     105.935E-03     107.284E-03
            4199            4521     100.284E-03     101.760E-03
            4200             802     98.9422E-03     101.114E-03
            4200             803     95.2618E-03     97.0746E-03
            4200            4520     105.935E-03     107.284E-03
            4200            4521     100.284E-03     101.760E-03
            4201             768     101.431E-03     102.305E-03
            4201             769     94.6320E-03     94.0951E-03
            4201            4521     100.284E-03     101.760E-03
            4201            4522     94.7126E-03     95.7945E-03
            4202             803     95.2618E-03     97.0746E-03
            4202             804     90.8909E-03     92.7054E-03
            4202            4521     100.284E-03     101.760E-03
            4202            4522     94.7126E-03     95.7945E-03
            4203             769     94.6320E-03     94.0951E-03
            4203             770     86.5876E-03     87.2405E-03
            4203            4522     94.7126E-03     95.7945E-03
            4203            4523     88.5302E-03     89.5443E-03
            4204             804     90.8909E-03     92.7054E-03
            4204             805     86.2040E-03     87.6393E-03
            4204            4522     94.7126E-03     95.7945E-03
            4204            4523     88.5302E-03     89.5443E-03
            4205             770     86.5876E-03     87.2405E-03
            4205             771     80.3170E-03     78.3642E-03
            4205            4523     88.5302E-03     89.5443E-03
            4205            4524     81.7433E-03     82.1063E-03
            4206             805     86.2040E-03     87.6393E-03
            4206             806     81.3794E-03     81.8684E-03
            4206            4523     88.5302E-03     89.5443E-03
            4206            4524     81.7433E-03     82.1063E-03
            4207             771     80.3170E-03     78.3642E-03
            4207             772     73.1507E-03     69.6317E-03
            4207            4524     81.7433E-03     82.1063E-03
            4207            4525     75.1278E-03     73.1173E-03
            4208             806     81.3794E-03     81.8684E-03
            4208             807     77.1030E-03     75.2080E-03
            4208            4524     81.7433E-03     82.1063E-03
            4208            4525     75.1278E-03     73.1173E-03
            4209             772     73.1507E-03     69.6317E-03
            4209             773     77.9810E-03     83.8510E-03
            4209            4525     75.1278E-03     73.1173E-03
            4209            4526     71.9981E-03     73.7654E-03
            4210             807     77.1030E-03     75.2080E-03
            4210             808     65.4225E-03     65.7706E-03
            4210            4525     75.1278E-03     73.1173E-03
            4210            4526     71.9981E-03     73.7654E-03
            4211             773     77.9810E-03     83.8510E-03
            4211             774     89.3837E-03     89.4591E-03
            4211            4526     71.9981E-03     73.7654E-03
            4211            4527     73.2315E-03     76.0137E-03
            4212             808     65.4225E-03     65.7706E-03
            4212             809     57.3148E-03     60.5990E-03
            4212            4526     71.9981E-03     73.7654E-03
            4212            4527     73.2315E-03     76.0137E-03
            4213             774     89.3837E-03     89.4591E-03
            4213             775     80.7920E-03     78.4918E-03
            4213            4527     73.2315E-03     76.0137E-03
            4213            4528     70.9722E-03     71.2170E-03
            4214             809     57.3148E-03     60.5990E-03
            4214             810     58.9797E-03     60.3698E-03
            4214            4527     73.2315E-03     76.0137E-03
            4214            4528     70.9722E-03     71.2170E-03
            4215             775     80.7920E-03     78.4918E-03
            4215             776     69.2957E-03     71.8312E-03
            4215            4528     70.9722E-03     71.2170E-03
            4215            4529     65.0165E-03     66.2972E-03
            4216             810     58.9797E-03     60.3698E-03
            4216             811     56.9099E-03     57.9319E-03
            4216            4528     70.9722E-03     71.2170E-03
            4216            4529     65.0165E-03     66.2972E-03
            4217             776     69.2957E-03     71.8312E-03
            4217             777     62.9236E-03     62.1640E-03
            4217            4529     65.0165E-03     66.2972E-03
            4217            4530     59.5608E-03     60.2181E-03
            4218             811     56.9099E-03     57.9319E-03
            4218             812     53.0196E-03     54.1501E-03
            4218            4529     65.0165E-03     66.2972E-03
            4218            4530     59.5608E-03     60.2181E-03
            4219             777     62.9236E-03     62.1640E-03
            4219             778     54.7821E-03     55.3232E-03
            4219            4530     59.5608E-03     60.2181E-03
            4219            4531     53.8216E-03     54.4792E-03
            4220             812     53.0196E-03     54.1501E-03
            4220             813     48.9645E-03     49.7655E-03
            4220            4530     59.5608E-03     60.2181E-03
            4220            4531     53.8216E-03     54.4792E-03
            4221             778     54.7821E-03     55.3232E-03
            4221             779     47.7281E-03     47.4675E-03
            4221            4531     53.8216E-03     54.4792E-03
            4221            4532     48.2582E-03     48.6009E-03
            4222             813     48.9645E-03     49.7655E-03
            4222             814     44.4823E-03     45.2507E-03
            4222            4531     53.8216E-03     54.4792E-03
            4222            4532     48.2582E-03     48.6009E-03
            4223             779     47.7281E-03     47.4675E-03
            4223             780     40.1441E-03     40.0410E-03
            4223            4532     48.2582E-03     48.6009E-03
            4223            4533     42.4519E-03     42.6482E-03
            4224             814     44.4823E-03     45.2507E-03
            4224             815     39.9490E-03     40.4785E-03
            4224            4532     48.2582E-03     48.6009E-03
            4224            4533     42.4519E-03     42.6482E-03
            4225             780     40.1441E-03     40.0410E-03
            4225             781     32.9369E-03     32.1101E-03
            4225            4533     42.4519E-03     42.6482E-03
            4225            4534     36.5405E-03     36.4043E-03
            4226             815     39.9490E-03     40.4785E-03
            4226             816     35.1441E-03     35.5738E-03
            4226            4533     42.4519E-03     42.6482E-03
            4226            4534     36.5405E-03     36.4043E-03
            4227             781     32.9369E-03     32.1101E-03
            4227             782     25.3328E-03     24.5253E-03
            4227            4534     36.5405E-03     36.4043E-03
            4227            4535     30.2750E-03     29.9599E-03
            4228             816     35.1441E-03     35.5738E-03
            4228             817     30.9466E-03     30.6839E-03
            4228            4534     36.5405E-03     36.4043E-03
            4228            4535     30.2750E-03     29.9599E-03
            4229             782     25.3328E-03     24.5253E-03
            4229             783     19.3932E-03     18.5606E-03
            4229            4535     30.2750E-03     29.9599E-03
            4229            4536     25.2960E-03     24.0856E-03
            4230             817     30.9466E-03     30.6839E-03
            4230             818     28.5524E-03     26.3253E-03
            4230            4535     30.2750E-03     29.9599E-03
            4230            4536     25.2960E-03     24.0856E-03
            4231             783     19.3932E-03     18.5606E-03
            4231             784     21.7066E-03     25.2889E-03
            4231            4536     25.2960E-03     24.0856E-03
            4231            4537     20.7172E-03     22.6572E-03
            4232             818     28.5524E-03     26.3253E-03
            4232             819     19.1263E-03     19.5726E-03
            4232            4536     25.2960E-03     24.0856E-03
            4232            4537     20.7172E-03     22.6572E-03
            4233             784     21.7066E-03     25.2889E-03
            4233             785     23.6366E-03     24.6189E-03
            4233            4537     20.7172E-03     22.6572E-03
            4233            4538     16.9933E-03     19.5618E-03
            4234             819     19.1263E-03     19.5726E-03
            4234             820     11.6234E-03     14.5951E-03
            4234            4537     20.7172E-03     22.6572E-03
            4234            4538     16.9933E-03     19.5618E-03
            4235             785     23.6366E-03     24.6189E-03
            4235             786     14.0913E-03     11.7364E-03
            4235            4538     16.9933E-03     19.5618E-03
            4235            4539     13.0950E-03     12.5623E-03
            4236             820     11.6234E-03     14.5951E-03
            4236             821     13.0273E-03     13.2400E-03
            4236            4538     16.9933E-03     19.5618E-03
            4236            4539     13.0950E-03     12.5623E-03
            4237             786     14.0913E-03     11.7364E-03
            4237             787     7.52781E-03     12.2347E-03
            4237            4539     13.0950E-03     12.5623E-03
            4237            4540     9.64130E-03     10.0907E-03
            4238             821     13.0273E-03     13.2400E-03
            4238             822     12.3667E-03     9.92267E-03
            4238            4539     13.0950E-03     12.5623E-03
            4238            4540     9.64130E-03     10.0907E-03
            4239              13     4.95143E-03     8.73621E-03
            4239             787     7.52781E-03     12.2347E-03
            4239             823     5.22990E-03     5.83712E-03
            4239            4540     9.64130E-03     10.0907E-03
            4240              36     6.20296E-03     4.36397E-03
            4240             822     12.3667E-03     9.92267E-03
            4240             823     5.22990E-03     5.83712E-03
            4240            4540     9.64130E-03     10.0907E-03
            4241              22     9.11713E-03     10.8966E-03
            4241             407     12.2562E-03     13.6045E-03
            4241             602     4.33294E-03     6.34317E-03
            4241            4541     7.98837E-03     10.2812E-03
            4242             406     18.7680E-03     19.8336E-03
            4242             407     12.2562E-03     13.6045E-03
            4242            4541     7.98837E-03     10.2812E-03
            4242            4542     15.6990E-03     18.2829E-03
            4243             405     25.8158E-03     27.1549E-03
            4243             406     18.7680E-03     19.8336E-03
            4243            4542     15.6990E-03     18.2829E-03
            4243            4543     23.8671E-03     26.4401E-03
            4244             404     33.2784E-03     34.8419E-03
            4244             405     25.8158E-03     27.1549E-03
            4244            4543     23.8671E-03     26.4401E-03
            4244            4544     32.0884E-03     34.6685E-03
            4245             403     40.9573E-03     42.6284E-03
            4245             404     33.2784E-03     34.8419E-03
            4245            4544     32.0884E-03     34.6685E-03
            4245            4545     40.3391E-03     42.9225E-03
            4246             402     48.7706E-03     50.4642E-03
            4246             403     40.9573E-03     42.6284E-03
            4246            4545     40.3391E-03     42.9225E-03
            4246            4546     48.6068E-03     51.1875E-03
            4247             401     56.6387E-03     58.3250E-03
            4247             402     48.7706E-03     50.4642E-03
            4247            4546     48.6068E-03     51.1875E-03
            4247            4547     56.8791E-03     59.4638E-03
            4248             400     64.5404E-03     66.1857E-03
            4248             401     56.6387E-03     58.3250E-03
            4248            4547     56.8791E-03     59.4638E-03
            4248            4548     65.1598E-03     67.7416E-03
            4249             399     72.4369E-03     74.0472E-03
            4249             400     64.5404E-03     66.1857E-03
            4249            4548     65.1598E-03     67.7416E-03
            4249            4549     73.4396E-03     76.0268E-03
            4250             398     80.3321E-03     81.8809E-03
            4250             399     72.4369E-03     74.0472E-03
            4250            4549     73.4396E-03     76.0268E-03
            4250            4550     81.7296E-03     84.3063E-03
            4251             397     88.1853E-03     89.7016E-03
            4251             398     80.3321E-03     81.8809E-03
            4251            4550     81.7296E-03     84.3063E-03
            4251            4551     90.0045E-03     92.6044E-03
            4252             396     96.0424E-03     97.4562E-03
            4252             397     88.1853E-03     89.7016E-03
            4252            4551     90.0045E-03     92.6044E-03
            4252            4552     98.3151E-03     100.870E-03
            4253             395     103.820E-03     105.206E-03
            4253             396     96.0424E-03     97.4562E-03
            4253            4552     98.3151E-03     100.870E-03
            4253            4553     106.563E-03     109.201E-03
            4254             394     111.668E-03     112.839E-03
            4254             395     103.820E-03     105.206E-03
            4254            4553     106.563E-03     109.201E-03
            4254            4554     114.925E-03     117.424E-03
            4255             393     119.398E-03     120.538E-03
            4255             394     111.668E-03     112.839E-03
            4255            4554     114.925E-03     117.424E-03
            4255            4555     123.117E-03     125.829E-03
            4256             392     127.387E-03     128.107E-03
            4256             393     119.398E-03     120.538E-03
            4256            4555     123.117E-03     125.829E-03
            4256            4556     131.573E-03     133.986E-03
            4257             391     135.301E-03     135.996E-03
            4257             392     127.387E-03     128.107E-03
            4257            4556     131.573E-03     133.986E-03
            4257            4557     139.707E-03     142.482E-03
            4258             390     143.832E-03     144.060E-03
            4258             391     135.301E-03     135.996E-03
            4258            4557     139.707E-03     142.482E-03
            4258            4558     148.168E-03     150.611E-03
            4259              21     153.115E-03     153.447E-03
            4259             390     143.832E-03     144.060E-03
            4259             748     156.391E-03     158.883E-03
            4259            4558     148.168E-03     150.611E-03
            4260             602     4.33294E-03     6.34317E-03
            4260             603     7.57938E-03     11.1929E-03
            4260            4541     7.98837E-03     10.2812E-03
            4260            4559     10.9253E-03     14.2763E-03
            4261            4541     7.98837E-03     10.2812E-03
            4261            4542     15.6990E-03     18.2829E-03
            4261            4559     10.9253E-03     14.2763E-03
            4261            4560     18.1086E-03     21.3156E-03
            4262            4542     15.6990E-03     18.2829E-03
            4262            4543     23.8671E-03     26.4401E-03
            4262            4560     18.1086E-03     21.3156E-03
            4262            4561     26.0061E-03     29.4065E-03
            4263            4543     23.8671E-03     26.4401E-03
            4263            4544     32.0884E-03     34.6685E-03
            4263            4561     26.0061E-03     29.4065E-03
            4263            4562     34.2418E-03     37.7597E-03
            4264            4544     32.0884E-03     34.6685E-03
            4264            4545     40.3391E-03     42.9225E-03
            4264            4562     34.2418E-03     37.7597E-03
            4264            4563     42.6633E-03     46.2131E-03
            4265            4545     40.3391E-03     42.9225E-03
            4265            4546     48.6068E-03     51.1875E-03
            4265            4563     42.6633E-03     46.2131E-03
            4265            4564     51.1685E-03     54.7300E-03
            4266            4546     48.6068E-03     51.1875E-03
            4266            4547     56.8791E-03     59.4638E-03
            4266            4564     51.1685E-03     54.7300E-03
            4266            4565     59.7073E-03     63.2916E-03
            4267            4547     56.8791E-03     59.4638E-03
            4267            4548     65.1598E-03     67.7416E-03
            4267            4565     59.7073E-03     63.2916E-03
            4267            4566     68.2699E-03     71.8772E-03
            4268            4548     65.1598E-03     67.7416E-03
            4268            4549     73.4396E-03     76.0268E-03
            4268            4566     68.2699E-03     71.8772E-03
            4268            4567     76.8347E-03     80.4710E-03
            4269            4549     73.4396E-03     76.0268E-03
            4269            4550     81.7296E-03     84.3063E-03
            4269            4567     76.8347E-03     80.4710E-03
            4269            4568     85.4057E-03     89.0663E-03
            4270            4550     81.7296E-03     84.3063E-03
            4270            4551     90.0045E-03     92.6044E-03
            4270            4568     85.4057E-03     89.0663E-03
            4270            4569     93.9504E-03     97.6484E-03
            4271            4551     90.0045E-03     92.6044E-03
            4271            4552     98.3151E-03     100.870E-03
            4271            4569     93.9504E-03     97.6484E-03
            4271            4570     102.498E-03     106.205E-03
            4272            4552     98.3151E-03     100.870E-03
            4272            4553     106.563E-03     109.201E-03
            4272            4570     102.498E-03     106.205E-03
            4272            4571     110.963E-03     114.736E-03
            4273            4553     106.563E-03     109.201E-03
            4273            4554     114.925E-03     117.424E-03
            4273            4571     110.963E-03     114.736E-03
            4273            4572     119.455E-03     123.184E-03
            4274            4554     114.925E-03     117.424E-03
            4274            4555     123.117E-03     125.829E-03
            4274            4572     119.455E-03     123.184E-03
            4274            4573     127.751E-03     131.606E-03
            4275            4555     123.117E-03     125.829E-03
            4275            4556     131.573E-03     133.986E-03
            4275            4573     127.751E-03     131.606E-03
            4275            4574     136.163E-03     139.807E-03
            4276            4556     131.573E-03     133.986E-03
            4276            4557     139.707E-03     142.482E-03
            4276            4574     136.163E-03     139.807E-03
            4276            4575     144.150E-03     147.975E-03
            4277            4557     139.707E-03     142.482E-03
            4277            4558     148.168E-03     150.611E-03
            4277            4575     144.150E-03     147.975E-03
            4277            4576     152.188E-03     155.654E-03
            4278             747     159.172E-03     162.516E-03
            4278             748     156.391E-03     158.883E-03
            4278            4558     148.168E-03     150.611E-03
            4278            4576     152.188E-03     155.654E-03
            4279             603     7.57938E-03     11.1929E-03
            4279             604     10.2098E-03     14.0800E-03
            4279            4559     10.9253E-03     14.2763E-03
            4279            4577     13.3437E-03     16.2424E-03
            4280            4559     10.9253E-03     14.2763E-03
            4280            4560     18.1086E-03     21.3156E-03
            4280            4577     13.3437E-03     16.2424E-03
            4280            4578     20.3422E-03     22.3082E-03
            4281            4560     18.1086E-03     21.3156E-03
            4281            4561     26.0061E-03     29.4065E-03
            4281            4578     20.3422E-03     22.3082E-03
            4281            4579     28.4291E-03     30.4139E-03
            4282            4561     26.0061E-03     29.4065E-03
            4282            4562     34.2418E-03     37.7597E-03
            4282            4579     28.4291E-03     30.4139E-03
            4282            4580     37.0136E-03     38.9495E-03
            4283            4562     34.2418E-03     37.7597E-03
            4283            4563     42.6633E-03     46.2131E-03
            4283            4580     37.0136E-03     38.9495E-03
            4283            4581     45.7821E-03     47.6898E-03
            4284            4563     42.6633E-03     46.2131E-03
            4284            4564     51.1685E-03     54.7300E-03
            4284            4581     45.7821E-03     47.6898E-03
            4284            4582     54.6476E-03     56.5254E-03
            4285            4564     51.1685E-03     54.7300E-03
            4285            4565     59.7073E-03     63.2916E-03
            4285            4582     54.6476E-03     56.5254E-03
            4285            4583     63.5821E-03     65.4061E-03
            4286            4565     59.7073E-03     63.2916E-03
            4286            4566     68.2699E-03     71.8772E-03
            4286            4583     63.5821E-03     65.4061E-03
            4286            4584     72.5406E-03     74.3179E-03
            4287            4566     68.2699E-03     71.8772E-03
            4287            4567     76.8347E-03     80.4710E-03
            4287            4584     72.5406E-03     74.3179E-03
            4287            4585     81.5192E-03     83.2451E-03
            4288            4567     76.8347E-03     80.4710E-03
            4288            4568     85.4057E-03     89.0663E-03
            4288            4585     81.5192E-03     83.2451E-03
            4288            4586     90.4940E-03     92.1705E-03
            4289            4568     85.4057E-03     89.0663E-03
            4289            4569     93.9504E-03     97.6484E-03
            4289            4586     90.4940E-03     92.1705E-03
            4289            4587     99.4680E-03     101.092E-03
            4290            4569     93.9504E-03     97.6484E-03
            4290            4570     102.498E-03     106.205E-03
            4290            4587     99.4680E-03     101.092E-03
            4290            4588     108.408E-03     109.983E-03
            4291            4570     102.498E-03     106.205E-03
            4291            4571     110.963E-03     114.736E-03
            4291            4588     108.408E-03     109.983E-03
            4291            4589     117.336E-03     118.853E-03
            4292            4571     110.963E-03     114.736E-03
            4292            4572     119.455E-03     123.184E-03
            4292            4589     117.336E-03     118.853E-03
            4292            4590     126.184E-03     127.660E-03
            4293            4572     119.455E-03     123.184E-03
            4293            4573     127.751E-03     131.606E-03
            4293            4590     126.184E-03     127.660E-03
            4293            4591     135.044E-03     136.418E-03
            4294            4573     127.751E-03     131.606E-03
            4294            4574     136.163E-03     139.807E-03
            4294            4591     135.044E-03     136.418E-03
            4294            4592     143.724E-03     145.088E-03
            4295            4574     136.163E-03     139.807E-03
            4295            4575     144.150E-03     147.975E-03
            4295            4592     143.724E-03     145.088E-03
            4295            4593     152.507E-03     153.638E-03
            4296            4575     144.150E-03     147.975E-03
            4296            4576     152.188E-03     155.654E-03
            4296            4593     152.507E-03     153.638E-03
            4296            4594     160.826E-03     161.896E-03
            4297             746     168.401E-03     169.826E-03
            4297             747     159.172E-03     162.516E-03
            4297            4576     152.188E-03     155.654E-03
            4297            4594     160.826E-03     161.896E-03
            4298             604     10.2098E-03     14.0800E-03
            4298             605     6.04449E-03     9.41372E-03
            4298            4577     13.3437E-03     16.2424E-03
            4298            4595     9.37530E-03     13.2186E-03
            4299            4577     13.3437E-03     16.2424E-03
            4299            4578     20.3422E-03     22.3082E-03
            4299            4595     9.37530E-03     13.2186E-03
            4299            4596     17.3604E-03     20.8584E-03
            4300            4578     20.3422E-03     22.3082E-03
            4300            4579     28.4291E-03     30.4139E-03
            4300            4596     17.3604E-03     20.8584E-03
            4300            4597     26.5511E-03     29.0743E-03
            4301            4579     28.4291E-03     30.4139E-03
            4301            4580     37.0136E-03     38.9495E-03
            4301            4597     26.5511E-03     29.0743E-03
            4301            4598     35.5604E-03     37.9624E-03
            4302            4580     37.0136E-03     38.9495E-03
            4302            4581     45.7821E-03     47.6898E-03
            4302            4598     35.5604E-03     37.9624E-03
            4302            4599     44.5434E-03     46.9847E-03
            4303            4581     45.7821E-03     47.6898E-03
            4303            4582     54.6476E-03     56.5254E-03
            4303            4599     44.5434E-03     46.9847E-03
            4303            4600     53.5650E-03     56.0280E-03
            4304            4582     54.6476E-03     56.5254E-03
            4304            4583     63.5821E-03     65.4061E-03
            4304            4600     53.5650E-03     56.0280E-03
            4304            4601     62.6031E-03     65.0834E-03
            4305            4583     63.5821E-03     65.4061E-03
            4305            4584     72.5406E-03     74.3179E-03
            4305            4601     62.6031E-03     65.0834E-03
            4305            4602     71.6659E-03     74.1396E-03
            4306            4584     72.5406E-03     74.3179E-03
            4306            4585     81.5192E-03     83.2451E-03
            4306            4602     71.6659E-03     74.1396E-03
            4306            4603     80.7392E-03     83.2003E-03
            4307            4585     81.5192E-03     83.2451E-03
            4307            4586     90.4940E-03     92.1705E-03
            4307            4603     80.7392E-03     83.2003E-03
            4307            4604     89.8251E-03     92.2684E-03
            4308            4586     90.4940E-03     92.1705E-03
            4308            4587     99.4680E-03     101.092E-03
            4308            4604     89.8251E-03     92.2684E-03
            4308            4605     98.9181E-03     101.344E-03
            4309            4587     99.4680E-03     101.092E-03
            4309            4588     108.408E-03     109.983E-03
            4309            4605     98.9181E-03     101.344E-03
            4309            4606     108.030E-03     110.435E-03
            4310            4588     108.408E-03     109.983E-03
            4310            4589     117.336E-03     118.853E-03
            4310            4606     108.030E-03     110.435E-03
            4310            4607     117.156E-03     119.544E-03
            4311            4589     117.336E-03     118.853E-03
            4311            4590     126.184E-03     127.660E-03
            4311            4607     117.156E-03     119.544E-03
            4311            4608     126.331E-03     128.694E-03
            4312            4590     126.184E-03     127.660E-03
            4312            4591     135.044E-03     136.418E-03
            4312            4608     126.331E-03     128.694E-03
            4312            4609     135.534E-03     137.917E-03
            4313            4591     135.044E-03     136.418E-03
            4313            4592     143.724E-03     145.088E-03
            4313            4609     135.534E-03     137.917E-03
            4313            4610     144.878E-03     147.272E-03
            4314            4592     143.724E-03     145.088E-03
            4314            4593     152.507E-03     153.638E-03
            4314            4610     144.878E-03     147.272E-03
            4314            4611     154.240E-03     156.851E-03
            4315            4593     152.507E-03     153.638E-03
            4315            4594     160.826E-03     161.896E-03
            4315            4611     154.240E-03     156.851E-03
            4315            4612     164.208E-03     166.905E-03
            4316             745     174.599E-03     177.197E-03
            4316             746     168.401E-03     169.826E-03
            4316            4594     160.826E-03     161.896E-03
            4316            4612     164.208E-03     166.905E-03
            4317             605     6.04449E-03     9.41372E-03
            4317             606     4.23150E-03     8.23009E-03
            4317            4595     9.37530E-03     13.2186E-03
            4317            4613     8.07185E-03     12.3502E-03
            4318            4595     9.37530E-03     13.2186E-03
            4318            4596     17.3604E-03     20.8584E-03
            4318            4613     8.07185E-03     12.3502E-03
            4318            4614     16.6307E-03     20.5077E-03
            4319            4596     17.3604E-03     20.8584E-03
            4319            4597     26.5511E-03     29.0743E-03
            4319            4614     16.6307E-03     20.5077E-03
            4319            4615     25.9196E-03     28.9852E-03
            4320            4597     26.5511E-03     29.0743E-03
            4320            4598     35.5604E-03     37.9624E-03
            4320            4615     25.9196E-03     28.9852E-03
            4320            4616     34.9966E-03     37.9735E-03
            4321            4598     35.5604E-03     37.9624E-03
            4321            4599     44.5434E-03     46.9847E-03
            4321            4616     34.9966E-03     37.9735E-03
            4321            4617     44.0245E-03     47.0647E-03
            4322            4599     44.5434E-03     46.9847E-03
            4322            4600     53.5650E-03     56.0280E-03
            4322            4617     44.0245E-03     47.0647E-03
            4322            4618     53.0650E-03     56.1609E-03
            4323            4600     53.5650E-03     56.0280E-03
            4323            4601     62.6031E-03     65.0834E-03
            4323            4618     53.0650E-03     56.1609E-03
            4323            4619     62.1152E-03     65.2598E-03
            4324            4601     62.6031E-03     65.0834E-03
            4324            4602     71.6659E-03     74.1396E-03
            4324            4619     62.1152E-03     65.2598E-03
            4324            4620     71.1818E-03     74.3544E-03
            4325            4602     71.6659E-03     74.1396E-03
            4325            4603     80.7392E-03     83.2003E-03
            4325            4620     71.1818E-03     74.3544E-03
            4325            4621     80.2558E-03     83.4491E-03
            4326            4603     80.7392E-03     83.2003E-03
            4326            4604     89.8251E-03     92.2684E-03
            4326            4621     80.2558E-03     83.4491E-03
            4326            4622     89.3383E-03     92.5507E-03
            4327            4604     89.8251E-03     92.2684E-03
            4327            4605     98.9181E-03     101.344E-03
            4327            4622     89.3383E-03     92.5507E-03
            4327            4623     98.4278E-03     101.656E-03
            4328            4605     98.9181E-03     101.344E-03
            4328            4606     108.030E-03     110.435E-03
            4328            4623     98.4278E-03     101.656E-03
            4328            4624     107.533E-03     110.778E-03
            4329            4606     108.030E-03     110.435E-03
            4329            4607     117.156E-03     119.544E-03
            4329            4624     107.533E-03     110.778E-03
            4329            4625     116.651E-03     119.911E-03
            4330            4607     117.156E-03     119.544E-03
            4330            4608     126.331E-03     128.694E-03
            4330            4625     116.651E-03     119.911E-03
            4330            4626     125.809E-03     129.085E-03
            4331            4608     126.331E-03     128.694E-03
            4331            4609     135.534E-03     137.917E-03
            4331            4626     125.809E-03     129.085E-03
            4331            4627     134.984E-03     138.310E-03
            4332            4609     135.534E-03     137.917E-03
            4332            4610     144.878E-03     147.272E-03
            4332            4627     134.984E-03     138.310E-03
            4332            4628     144.277E-03     147.649E-03
            4333            4610     144.878E-03     147.272E-03
            4333            4611     154.240E-03     156.851E-03
            4333            4628     144.277E-03     147.649E-03
            4333            4629     153.628E-03     157.265E-03
            4334            4611     154.240E-03     156.851E-03
            4334            4612     164.208E-03     166.905E-03
            4334            4629     153.628E-03     157.265E-03
            4334            4630     163.522E-03     167.357E-03
            4335             744     175.323E-03     178.750E-03
            4335             745     174.599E-03     177.197E-03
            4335            4612     164.208E-03     166.905E-03
            4335            4630     163.522E-03     167.357E-03
            4336             606     4.23150E-03     8.23009E-03
            4336             607     6.88872E-03     11.3718E-03
            4336            4613     8.07185E-03     12.3502E-03
            4336            4631     10.5650E-03     14.2355E-03
            4337            4613     8.07185E-03     12.3502E-03
            4337            4614     16.6307E-03     20.5077E-03
            4337            4631     10.5650E-03     14.2355E-03
            4337            4632     18.2757E-03     21.4269E-03
            4338            4614     16.6307E-03     20.5077E-03
            4338            4615     25.9196E-03     28.9852E-03
            4338            4632     18.2757E-03     21.4269E-03
            4338            4633     26.6322E-03     30.1365E-03
            4339            4615     25.9196E-03     28.9852E-03
            4339            4616     34.9966E-03     37.9735E-03
            4339            4633     26.6322E-03     30.1365E-03
            4339            4634     35.3858E-03     38.9699E-03
            4340            4616     34.9966E-03     37.9735E-03
            4340            4617     44.0245E-03     47.0647E-03
            4340            4634     35.3858E-03     38.9699E-03
            4340            4635     44.2567E-03     47.9166E-03
            4341            4617     44.0245E-03     47.0647E-03
            4341            4618     53.0650E-03     56.1609E-03
            4341            4635     44.2567E-03     47.9166E-03
            4341            4636     53.1753E-03     56.9104E-03
            4342            4618     53.0650E-03     56.1609E-03
            4342            4619     62.1152E-03     65.2598E-03
            4342            4636     53.1753E-03     56.9104E-03
            4342            4637     62.1363E-03     65.9231E-03
            4343            4619     62.1152E-03     65.2598E-03
            4343            4620     71.1818E-03     74.3544E-03
            4343            4637     62.1363E-03     65.9231E-03
            4343            4638     71.1032E-03     74.9497E-03
            4344            4620     71.1818E-03     74.3544E-03
            4344            4621     80.2558E-03     83.4491E-03
            4344            4638     71.1032E-03     74.9497E-03
            4344            4639     80.0776E-03     83.9821E-03
            4345            4621     80.2558E-03     83.4491E-03
            4345            4622     89.3383E-03     92.5507E-03
            4345            4639     80.0776E-03     83.9821E-03
            4345            4640     89.0418E-03     93.0040E-03
            4346            4622     89.3383E-03     92.5507E-03
            4346            4623     98.4278E-03     101.656E-03
            4346            4640     89.0418E-03     93.0040E-03
            4346            4641     97.9981E-03     102.019E-03
            4347            4623     98.4278E-03     101.656E-03
            4347            4624     107.533E-03     110.778E-03
            4347            4641     97.9981E-03     102.019E-03
            4347            4642     106.919E-03     110.998E-03
            4348            4624     107.533E-03     110.778E-03
            4348            4625     116.651E-03     119.911E-03
            4348            4642     106.919E-03     110.998E-03
            4348            4643     115.819E-03     119.953E-03
            4349            4625     116.651E-03     119.911E-03
            4349            4626     125.809E-03     129.085E-03
            4349            4643     115.819E-03     119.953E-03
            4349            4644     124.634E-03     128.829E-03
            4350            4626     125.809E-03     129.085E-03
            4350            4627     134.984E-03     138.310E-03
            4350            4644     124.634E-03     128.829E-03
            4350            4645     133.439E-03     137.649E-03
            4351            4627     134.984E-03     138.310E-03
            4351            4628     144.277E-03     147.649E-03
            4351            4645     133.439E-03     137.649E-03
            4351            4646     142.064E-03     146.361E-03
            4352            4628     144.277E-03     147.649E-03
            4352            4629     153.628E-03     157.265E-03
            4352            4646     142.064E-03     146.361E-03
            4352            4647     150.884E-03     155.072E-03
            4353            4629     153.628E-03     157.265E-03
            4353            4630     163.522E-03     167.357E-03
            4353            4647     150.884E-03     155.072E-03
            4353            4648     159.604E-03     163.858E-03
            4354             743     169.638E-03     174.159E-03
            4354             744     175.323E-03     178.750E-03
            4354            4630     163.522E-03     167.357E-03
            4354            4648     159.604E-03     163.858E-03
            4355              30     8.86073E-03     11.8484E-03
            4355             607     6.88872E-03     11.3718E-03
            4355             673     11.9976E-03     14.9161E-03
            4355            4631     10.5650E-03     14.2355E-03
            4356             673     11.9976E-03     14.9161E-03
            4356             674     18.8319E-03     22.1626E-03
            4356            4631     10.5650E-03     14.2355E-03
            4356            4632     18.2757E-03     21.4269E-03
            4357             674     18.8319E-03     22.1626E-03
            4357             675     26.6181E-03     30.6606E-03
            4357            4632     18.2757E-03     21.4269E-03
            4357            4633     26.6322E-03     30.1365E-03
            4358             675     26.6181E-03     30.6606E-03
            4358             676     34.9635E-03     39.3570E-03
            4358            4633     26.6322E-03     30.1365E-03
            4358            4634     35.3858E-03     38.9699E-03
            4359             676     34.9635E-03     39.3570E-03
            4359             677     43.5622E-03     48.1024E-03
            4359            4634     35.3858E-03     38.9699E-03
            4359            4635     44.2567E-03     47.9166E-03
            4360             677     43.5622E-03     48.1024E-03
            4360             678     52.2845E-03     56.8757E-03
            4360            4635     44.2567E-03     47.9166E-03
            4360            4636     53.1753E-03     56.9104E-03
            4361             678     52.2845E-03     56.8757E-03
            4361             679     61.0418E-03     65.6882E-03
            4361            4636     53.1753E-03     56.9104E-03
            4361            4637     62.1363E-03     65.9231E-03
            4362             679     61.0418E-03     65.6882E-03
            4362             680     69.8170E-03     74.5107E-03
            4362            4637     62.1363E-03     65.9231E-03
            4362            4638     71.1032E-03     74.9497E-03
            4363             680     69.8170E-03     74.5107E-03
            4363             681     78.5696E-03     83.3355E-03
            4363            4638     71.1032E-03     74.9497E-03
            4363            4639     80.0776E-03     83.9821E-03
            4364             681     78.5696E-03     83.3355E-03
            4364             682     87.3149E-03     92.1343E-03
            4364            4639     80.0776E-03     83.9821E-03
            4364            4640     89.0418E-03     93.0040E-03
            4365             682     87.3149E-03     92.1343E-03
            4365             683     95.9922E-03     100.898E-03
            4365            4640     89.0418E-03     93.0040E-03
            4365            4641     97.9981E-03     102.019E-03
            4366             683     95.9922E-03     100.898E-03
            4366             684     104.640E-03     109.591E-03
            4366            4641     97.9981E-03     102.019E-03
            4366            4642     106.919E-03     110.998E-03
            4367             684     104.640E-03     109.591E-03
            4367             685     113.153E-03     118.198E-03
            4367            4642     106.919E-03     110.998E-03
            4367            4643     115.819E-03     119.953E-03
            4368             685     113.153E-03     118.198E-03
            4368             686     121.621E-03     126.666E-03
            4368            4643     115.819E-03     119.953E-03
            4368            4644     124.634E-03     128.829E-03
            4369             686     121.621E-03     126.666E-03
            4369             687     129.867E-03     134.974E-03
            4369            4644     124.634E-03     128.829E-03
            4369            4645     133.439E-03     137.649E-03
            4370             687     129.867E-03     134.974E-03
            4370             688     138.169E-03     143.080E-03
            4370            4645     133.439E-03     137.649E-03
            4370            4646     142.064E-03     146.361E-03
            4371             688     138.169E-03     143.080E-03
            4371             689     146.219E-03     151.056E-03
            4371            4646     142.064E-03     146.361E-03
            4371            4647     150.884E-03     155.072E-03
            4372             689     146.219E-03     151.056E-03
            4372             690     154.979E-03     159.285E-03
            4372            4647     150.884E-03     155.072E-03
            4372            4648     159.604E-03     163.858E-03
            4373              31     164.106E-03     168.518E-03
            4373             690     154.979E-03     159.285E-03
            4373             743     169.638E-03     174.159E-03
            4373            4648     159.604E-03     163.858E-03
            4374              35     140.337E-03     143.367E-03
            4374             789     139.277E-03     142.774E-03
            4374             824     130.858E-03     133.532E-03
            4374            4649     126.322E-03     129.635E-03
            4375             824     130.858E-03     133.532E-03
            4375             825     122.271E-03     125.062E-03
            4375            4649     126.322E-03     129.635E-03
            4375            4650     116.828E-03     120.150E-03
            4376             825     122.271E-03     125.062E-03
            4376             826     114.495E-03     117.366E-03
            4376            4650     116.828E-03     120.150E-03
            4376            4651     108.481E-03     111.994E-03
            4377             826     114.495E-03     117.366E-03
            4377             827     106.966E-03     110.037E-03
            4377            4651     108.481E-03     111.994E-03
            4377            4652     101.046E-03     104.731E-03
            4378             827     106.966E-03     110.037E-03
            4378             828     99.7003E-03     102.870E-03
            4378            4652     101.046E-03     104.731E-03
            4378            4653     93.9614E-03     97.8200E-03
            4379             828     99.7003E-03     102.870E-03
            4379             829     92.4980E-03     95.7886E-03
            4379            4653     93.9614E-03     97.8200E-03
            4379            4654     87.1429E-03     91.1298E-03
            4380             829     92.4980E-03     95.7886E-03
            4380             830     85.3758E-03     88.7186E-03
            4380            4654     87.1429E-03     91.1298E-03
            4380            4655     80.4130E-03     84.4916E-03
            4381             830     85.3758E-03     88.7186E-03
            4381             831     78.2538E-03     81.6505E-03
            4381            4655     80.4130E-03     84.4916E-03
            4381            4656     73.7396E-03     77.8778E-03
            4382             831     78.2538E-03     81.6505E-03
            4382             832     71.1476E-03     74.5589E-03
            4382            4656     73.7396E-03     77.8778E-03
            4382            4657     67.0705E-03     71.2372E-03
            4383             832     71.1476E-03     74.5589E-03
            4383             833     64.0273E-03     67.4510E-03
            4383            4657     67.0705E-03     71.2372E-03
            4383            4658     60.3993E-03     64.5717E-03
            4384             833     64.0273E-03     67.4510E-03
            4384             834     56.9103E-03     60.3191E-03
            4384            4658     60.3993E-03     64.5717E-03
            4384            4659     53.7213E-03     57.8710E-03
            4385             834     56.9103E-03     60.3191E-03
            4385             835     49.7916E-03     53.1724E-03
            4385            4659     53.7213E-03     57.8710E-03
            4385            4660     47.0479E-03     51.1399E-03
            4386             835     49.7916E-03     53.1724E-03
            4386             836     42.6972E-03     46.0105E-03
            4386            4660     47.0479E-03     51.1399E-03
            4386            4661     40.3978E-03     44.3853E-03
            4387             836     42.6972E-03     46.0105E-03
            4387             837     35.6401E-03     38.8436E-03
            4387            4661     40.3978E-03     44.3853E-03
            4387            4662     33.8073E-03     37.6130E-03
            4388             837     35.6401E-03     38.8436E-03
            4388             838     28.6733E-03     31.6868E-03
            4388            4662     33.8073E-03     37.6130E-03
            4388            4663     27.3250E-03     30.8527E-03
            4389             838     28.6733E-03     31.6868E-03
            4389             839     21.8571E-03     24.5716E-03
            4389            4663     27.3250E-03     30.8527E-03
            4389            4664     21.0352E-03     24.1801E-03
            4390             839     21.8571E-03     24.5716E-03
            4390             840     15.3331E-03     17.6579E-03
            4390            4664     21.0352E-03     24.1801E-03
            4390            4665     15.1153E-03     17.8665E-03
            4391             840     15.3331E-03     17.6579E-03
            4391             841     9.18624E-03     11.5301E-03
            4391            4665     15.1153E-03     17.8665E-03
            4391            4666     9.98751E-03     13.2155E-03
            4392              33     6.20063E-03     8.77959E-03
            4392             841     9.18624E-03     11.5301E-03
            4392             842     7.69119E-03     11.5695E-03
            4392            4666     9.98751E-03     13.2155E-03
            4393             789     139.277E-03     142.774E-03
            4393             790     144.580E-03     147.071E-03
            4393            4649     126.322E-03     129.635E-03
            4393            4667     130.490E-03     133.977E-03
            4394            4649     126.322E-03     129.635E-03
            4394            4650     116.828E-03     120.150E-03
            4394            4667     130.490E-03     133.977E-03
            4394            4668     120.266E-03     123.895E-03
            4395            4650     116.828E-03     120.150E-03
            4395            4651     108.481E-03     111.994E-03
            4395            4668     120.266E-03     123.895E-03
            4395            4669     111.566E-03     115.180E-03
            4396            4651     108.481E-03     111.994E-03
            4396            4652     101.046E-03     104.731E-03
            4396            4669     111.566E-03     115.180E-03
            4396            4670     103.680E-03     107.334E-03
            4397            4652     101.046E-03     104.731E-03
            4397            4653     93.9614E-03     97.8200E-03
            4397            4670     103.680E-03     107.334E-03
            4397            4671     96.3066E-03     99.9487E-03
            4398            4653     93.9614E-03     97.8200E-03
            4398            4654     87.1429E-03     91.1298E-03
            4398            4671     96.3066E-03     99.9487E-03
            4398            4672     89.1546E-03     92.8141E-03
            4399            4654     87.1429E-03     91.1298E-03
            4399            4655     80.4130E-03     84.4916E-03
            4399            4672     89.1546E-03     92.8141E-03
            4399            4673     82.1493E-03     85.8100E-03
            4400            4655     80.4130E-03     84.4916E-03
            4400            4656     73.7396E-03     77.8778E-03
            4400            4673     82.1493E-03     85.8100E-03
            4400            4674     75.1938E-03     78.8585E-03
            4401            4656     73.7396E-03     77.8778E-03
            4401            4657     67.0705E-03     71.2372E-03
            4401            4674     75.1938E-03     78.8585E-03
            4401            4675     68.2691E-03     71.9290E-03
            4402            4657     67.0705E-03     71.2372E-03
            4402            4658     60.3993E-03     64.5717E-03
            4402            4675     68.2691E-03     71.9290E-03
            4402            4676     61.3481E-03     64.9952E-03
            4403            4658     60.3993E-03     64.5717E-03
            4403            4659     53.7213E-03     57.8710E-03
            4403            4676     61.3481E-03     64.9952E-03
            4403            4677     54.4296E-03     58.0528E-03
            4404            4659     53.7213E-03     57.8710E-03
            4404            4660     47.0479E-03     51.1399E-03
            4404            4677     54.4296E-03     58.0528E-03
            4404            4678     47.5107E-03     51.0963E-03
            4405            4660     47.0479E-03     51.1399E-03
            4405            4661     40.3978E-03     44.3853E-03
            4405            4678     47.5107E-03     51.0963E-03
            4405            4679     40.6009E-03     44.1243E-03
            4406            4661     40.3978E-03     44.3853E-03
            4406            4662     33.8073E-03     37.6130E-03
            4406            4679     40.6009E-03     44.1243E-03
            4406            4680     33.7004E-03     37.1467E-03
            4407            4662     33.8073E-03     37.6130E-03
            4407            4663     27.3250E-03     30.8527E-03
            4407            4680     33.7004E-03     37.1467E-03
            4407            4681     26.8320E-03     30.1770E-03
            4408            4663     27.3250E-03     30.8527E-03
            4408            4664     21.0352E-03     24.1801E-03
            4408            4681     26.8320E-03     30.1770E-03
            4408            4682     19.9848E-03     23.2662E-03
            4409            4664     21.0352E-03     24.1801E-03
            4409            4665     15.1153E-03     17.8665E-03
            4409            4682     19.9848E-03     23.2662E-03
            4409            4683     13.0967E-03     16.7786E-03
            4410            4665     15.1153E-03     17.8665E-03
            4410            4666     9.98751E-03     13.2155E-03
            4410            4683     13.0967E-03     16.7786E-03
            4410            4684     7.02868E-03     10.9263E-03
            4411             842     7.69119E-03     11.5695E-03
            4411             843     4.42395E-03     8.13738E-03
            4411            4666     9.98751E-03     13.2155E-03
            4411            4684     7.02868E-03     10.9263E-03
            4412             790     144.580E-03     147.071E-03
            4412             791     144.695E-03     147.359E-03
            4412            4667     130.490E-03     133.977E-03
            4412            4685     133.336E-03     136.498E-03
            4413            4667     130.490E-03     133.977E-03
            4413            4668     120.266E-03     123.895E-03
            4413            4685     133.336E-03     136.498E-03
            4413            4686     122.918E-03     126.526E-03
            4414            4668     120.266E-03     123.895E-03
            4414            4669     111.566E-03     115.180E-03
            4414            4686     122.918E-03     126.526E-03
            4414            4687     114.146E-03     117.737E-03
            4415            4669     111.566E-03     115.180E-03
            4415            4670     103.680E-03     107.334E-03
            4415            4687     114.146E-03     117.737E-03
            4415            4688     106.036E-03     109.544E-03
            4416            4670     103.680E-03     107.334E-03
            4416            4671     96.3066E-03     99.9487E-03
            4416            4688     106.036E-03     109.544E-03
            4416            4689     98.3990E-03     101.815E-03
            4417            4671     96.3066E-03     99.9487E-03
            4417            4672     89.1546E-03     92.8141E-03
            4417            4689     98.3990E-03     101.815E-03
            4417            4690     91.0094E-03     94.3329E-03
            4418            4672     89.1546E-03     92.8141E-03
            4418            4673     82.1493E-03     85.8100E-03
            4418            4690     91.0094E-03     94.3329E-03
            4418            4691     83.7581E-03     87.0187E-03
            4419            4673     82.1493E-03     85.8100E-03
            4419            4674     75.1938E-03     78.8585E-03
            4419            4691     83.7581E-03     87.0187E-03
            4419            4692     76.5871E-03     79.7957E-03
            4420            4674     75.1938E-03     78.8585E-03
            4420            4675     68.2691E-03     71.9290E-03
            4420            4692     76.5871E-03     79.7957E-03
            4420            4693     69.4557E-03     72.6283E-03
            4421            4675     68.2691E-03     71.9290E-03
            4421            4676     61.3481E-03     64.9952E-03
            4421            4693     69.4557E-03     72.6283E-03
            4421            4694     62.3489E-03     65.4930E-03
            4422            4676     61.3481E-03     64.9952E-03
            4422            4677     54.4296E-03     58.0528E-03
            4422            4694     62.3489E-03     65.4930E-03
            4422            4695     55.2534E-03     58.3754E-03
            4423            4677     54.4296E-03     58.0528E-03
            4423            4678     47.5107E-03     51.0963E-03
            4423            4695     55.2534E-03     58.3754E-03
            4423            4696     48.1642E-03     51.2722E-03
            4424            4678     47.5107E-03     51.0963E-03
            4424            4679     40.6009E-03     44.1243E-03
            4424            4696     48.1642E-03     51.2722E-03
            4424            4697     41.0776E-03     44.1805E-03
            4425            4679     40.6009E-03     44.1243E-03
            4425            4680     33.7004E-03     37.1467E-03
            4425            4697     41.0776E-03     44.1805E-03
            4425            4698     33.9899E-03     37.1017E-03
            4426            4680     33.7004E-03     37.1467E-03
            4426            4681     26.8320E-03     30.1770E-03
            4426            4698     33.9899E-03     37.1017E-03
            4426            4699     26.8951E-03     30.0505E-03
            4427            4681     26.8320E-03     30.1770E-03
            4427            4682     19.9848E-03     23.2662E-03
            4427            4699     26.8951E-03     30.0505E-03
            4427            4700     19.7608E-03     23.0847E-03
            4428            4682     19.9848E-03     23.2662E-03
            4428            4683     13.0967E-03     16.7786E-03
            4428            4700     19.7608E-03     23.0847E-03
            4428            4701     12.5829E-03     16.2973E-03
            4429            4683     13.0967E-03     16.7786E-03
            4429            4684     7.02868E-03     10.9263E-03
            4429            4701     12.5829E-03     16.2973E-03
            4429            4702     6.01904E-03     9.31007E-03
            4430             843     4.42395E-03     8.13738E-03
            4430             844     3.04705E-03     5.65837E-03
            4430            4684     7.02868E-03     10.9263E-03
            4430            4702     6.01904E-03     9.31007E-03
            4431             791     144.695E-03     147.359E-03
            4431             792     142.043E-03     145.134E-03
            4431            4685     133.336E-03     136.498E-03
            4431            4703     133.266E-03     136.519E-03
            4432            4685     133.336E-03     136.498E-03
            4432            4686     122.918E-03     126.526E-03
            4432            4703     133.266E-03     136.519E-03
            4432            4704     124.327E-03     127.688E-03
            4433            4686     122.918E-03     126.526E-03
            4433            4687     114.146E-03     117.737E-03
            4433            4704     124.327E-03     127.688E-03
            4433            4705     115.712E-03     119.132E-03
            4434            4687     114.146E-03     117.737E-03
            4434            4688     106.036E-03     109.544E-03
            4434            4705     115.712E-03     119.132E-03
            4434            4706     107.728E-03     110.966E-03
            4435            4688     106.036E-03     109.544E-03
            4435            4689     98.3990E-03     101.815E-03
            4435            4706     107.728E-03     110.966E-03
            4435            4707     99.9746E-03     103.064E-03
            4436            4689     98.3990E-03     101.815E-03
            4436            4690     91.0094E-03     94.3329E-03
            4436            4707     99.9746E-03     103.064E-03
            4436            4708     92.4608E-03     95.4004E-03
            4437            4690     91.0094E-03     94.3329E-03
            4437            4691     83.7581E-03     87.0187E-03
            4437            4708     92.4608E-03     95.4004E-03
            4437            4709     85.0587E-03     87.8858E-03
            4438            4691     83.7581E-03     87.0187E-03
            4438            4692     76.5871E-03     79.7957E-03
            4438            4709     85.0587E-03     87.8858E-03
            4438            4710     77.7475E-03     80.4923E-03
            4439            4692     76.5871E-03     79.7957E-03
            4439            4693     69.4557E-03     72.6283E-03
            4439            4710     77.7475E-03     80.4923E-03
            4439            4711     70.4899E-03     73.1768E-03
            4440            4693     69.4557E-03     72.6283E-03
            4440            4694     62.3489E-03     65.4930E-03
            4440            4711     70.4899E-03     73.1768E-03
            4440            4712     63.2720E-03     65.9218E-03
            4441            4694     62.3489E-03     65.4930E-03
            4441            4695     55.2534E-03     58.3754E-03
            4441            4712     63.2720E-03     65.9218E-03
            4441            4713     56.0803E-03     58.7156E-03
            4442            4695     55.2534E-03     58.3754E-03
            4442            4696     48.1642E-03     51.2722E-03
            4442            4713     56.0803E-03     58.7156E-03
            4442            4714     48.9083E-03     51.5497E-03
            4443            4696     48.1642E-03     51.2722E-03
            4443            4697     41.0776E-03     44.1805E-03
            4443            4714     48.9083E-03     51.5497E-03
            4443            4715     41.7420E-03     44.4334E-03
            4444            4697     41.0776E-03     44.1805E-03
            4444            4698     33.9899E-03     37.1017E-03
            4444            4715     41.7420E-03     44.4334E-03
            4444            4716     34.5919E-03     37.3690E-03
            4445            4698     33.9899E-03     37.1017E-03
            4445            4699     26.8951E-03     30.0505E-03
            4445            4716     34.5919E-03     37.3690E-03
            4445            4717     27.4452E-03     30.3580E-03
            4446            4699     26.8951E-03     30.0505E-03
            4446            4700     19.7608E-03     23.0847E-03
            4446            4717     27.4452E-03     30.3580E-03
            4446            4718     20.3320E-03     23.4774E-03
            4447            4700     19.7608E-03     23.0847E-03
            4447            4701     12.5829E-03     16.2973E-03
            4447            4718     20.3320E-03     23.4774E-03
            4447            4719     13.4792E-03     16.5454E-03
            4448            4701     12.5829E-03     16.2973E-03
            4448            4702     6.01904E-03     9.31007E-03
            4448            4719     13.4792E-03     16.5454E-03
            4448            4720     7.38928E-03     9.95033E-03
            4449             844     3.04705E-03     5.65837E-03
            4449             845     4.61936E-03     6.89564E-03
            4449            4702     6.01904E-03     9.31007E-03
            4449            4720     7.38928E-03     9.95033E-03
            4450             792     142.043E-03     145.134E-03
            4450             793     138.821E-03     141.490E-03
            4450            4703     133.266E-03     136.519E-03
            4450            4721     131.512E-03     134.734E-03
            4451            4703     133.266E-03     136.519E-03
            4451            4704     124.327E-03     127.688E-03
            4451            4721     131.512E-03     134.734E-03
            4451            4722     123.943E-03     127.151E-03
            4452            4704     124.327E-03     127.688E-03
            4452            4705     115.712E-03     119.132E-03
            4452            4722     123.943E-03     127.151E-03
            4452            4723     116.203E-03     119.207E-03
            4453            4705     115.712E-03     119.132E-03
            4453            4706     107.728E-03     110.966E-03
            4453            4723     116.203E-03     119.207E-03
            4453            4724     108.421E-03     111.275E-03
            4454            4706     107.728E-03     110.966E-03
            4454            4707     99.9746E-03     103.064E-03
            4454            4724     108.421E-03     111.275E-03
            4454            4725     100.835E-03     103.461E-03
            4455            4707     99.9746E-03     103.064E-03
            4455            4708     92.4608E-03     95.4004E-03
            4455            4725     100.835E-03     103.461E-03
            4455            4726     93.3049E-03     95.7766E-03
            4456            4708     92.4608E-03     95.4004E-03
            4456            4709     85.0587E-03     87.8858E-03
            4456            4726     93.3049E-03     95.7766E-03
            4456            4727     85.8934E-03     88.2332E-03
            4457            4709     85.0587E-03     87.8858E-03
            4457            4710     77.7475E-03     80.4923E-03
            4457            4727     85.8934E-03     88.2332E-03
            4457            4728     78.5429E-03     80.7939E-03
            4458            4710     77.7475E-03     80.4923E-03
            4458            4711     70.4899E-03     73.1768E-03
            4458            4728     78.5429E-03     80.7939E-03
            4458            4729     71.2609E-03     73.4499E-03
            4459            4711     70.4899E-03     73.1768E-03
            4459            4712     63.2720E-03     65.9218E-03
            4459            4729     71.2609E-03     73.4499E-03
            4459            4730     64.0265E-03     66.1806E-03
            4460            4712     63.2720E-03     65.9218E-03
            4460            4713     56.0803E-03     58.7156E-03
            4460            4730     64.0265E-03     66.1806E-03
            4460            4731     56.8357E-03     58.9789E-03
            4461            4713     56.0803E-03     58.7156E-03
            4461            4714     48.9083E-03     51.5497E-03
            4461            4731     56.8357E-03     58.9789E-03
            4461            4732     49.6762E-03     51.8493E-03
            4462            4714     48.9083E-03     51.5497E-03
            4462            4715     41.7420E-03     44.4334E-03
            4462            4732     49.6762E-03     51.8493E-03
            4462            4733     42.5503E-03     44.7946E-03
            4463            4715     41.7420E-03     44.4334E-03
            4463            4716     34.5919E-03     37.3690E-03
            4463            4733     42.5503E-03     44.7946E-03
            4463            4734     35.4442E-03     37.8503E-03
            4464            4716     34.5919E-03     37.3690E-03
            4464            4717     27.4452E-03     30.3580E-03
            4464            4734     35.4442E-03     37.8503E-03
            4464            4735     28.4180E-03     31.0462E-03
            4465            4717     27.4452E-03     30.3580E-03
            4465            4718     20.3320E-03     23.4774E-03
            4465            4735     28.4180E-03     31.0462E-03
            4465            4736     21.5843E-03     24.3079E-03
            4466            4718     20.3320E-03     23.4774E-03
            4466            4719     13.4792E-03     16.5454E-03
            4466            4736     21.5843E-03     24.3079E-03
            4466            4737     15.1675E-03     17.8901E-03
            4467            4719     13.4792E-03     16.5454E-03
            4467            4720     7.38928E-03     9.95033E-03
            4467            4737     15.1675E-03     17.8901E-03
            4467            4738     10.2546E-03     11.9597E-03
            4468             845     4.61936E-03     6.89564E-03
            4468             846     8.40076E-03     9.07952E-03
            4468            4720     7.38928E-03     9.95033E-03
            4468            4738     10.2546E-03     11.9597E-03
            4469             793     138.821E-03     141.490E-03
            4469             794     134.617E-03     137.380E-03
            4469            4721     131.512E-03     134.734E-03
            4469            4739     128.819E-03     131.669E-03
            4470            4721     131.512E-03     134.734E-03
            4470            4722     123.943E-03     127.151E-03
            4470            4739     128.819E-03     131.669E-03
            4470            4740     122.340E-03     125.070E-03
            4471            4722     123.943E-03     127.151E-03
            4471            4723     116.203E-03     119.207E-03
            4471            4740     122.340E-03     125.070E-03
            4471            4741     115.355E-03     117.860E-03
            4472            4723     116.203E-03     119.207E-03
            4472            4724     108.421E-03     111.275E-03
            4472            4741     115.355E-03     117.860E-03
            4472            4742     108.137E-03     110.363E-03
            4473            4724     108.421E-03     111.275E-03
            4473            4725     100.835E-03     103.461E-03
            4473            4742     108.137E-03     110.363E-03
            4473            4743     100.776E-03     102.831E-03
            4474            4725     100.835E-03     103.461E-03
            4474            4726     93.3049E-03     95.7766E-03
            4474            4743     100.776E-03     102.831E-03
            4474            4744     93.4543E-03     95.3481E-03
            4475            4726     93.3049E-03     95.7766E-03
            4475            4727     85.8934E-03     88.2332E-03
            4475            4744     93.4543E-03     95.3481E-03
            4475            4745     86.1436E-03     87.9401E-03
            4476            4727     85.8934E-03     88.2332E-03
            4476            4728     78.5429E-03     80.7939E-03
            4476            4745     86.1436E-03     87.9401E-03
            4476            4746     78.9004E-03     80.6218E-03
            4477            4728     78.5429E-03     80.7939E-03
            4477            4729     71.2609E-03     73.4499E-03
            4477            4746     78.9004E-03     80.6218E-03
            4477            4747     71.7047E-03     73.3817E-03
            4478            4729     71.2609E-03     73.4499E-03
            4478            4730     64.0265E-03     66.1806E-03
            4478            4747     71.7047E-03     73.3817E-03
            4478            4748     64.5689E-03     66.2191E-03
            4479            4730     64.0265E-03     66.1806E-03
            4479            4731     56.8357E-03     58.9789E-03
            4479            4748     64.5689E-03     66.2191E-03
            4479            4749     57.4842E-03     59.1328E-03
            4480            4731     56.8357E-03     58.9789E-03
            4480            4732     49.6762E-03     51.8493E-03
            4480            4749     57.4842E-03     59.1328E-03
            4480            4750     50.4522E-03     52.1295E-03
            4481            4732     49.6762E-03     51.8493E-03
            4481            4733     42.5503E-03     44.7946E-03
            4481            4750     50.4522E-03     52.1295E-03
            4481            4751     43.4718E-03     45.2387E-03
            4482            4733     42.5503E-03     44.7946E-03
            4482            4734     35.4442E-03     37.8503E-03
            4482            4751     43.4718E-03     45.2387E-03
            4482            4752     36.5595E-03     38.4968E-03
            4483            4734     35.4442E-03     37.8503E-03
            4483            4735     28.4180E-03     31.0462E-03
            4483            4752     36.5595E-03     38.4968E-03
            4483            4753     29.7552E-03     31.9966E-03
            4484            4735     28.4180E-03     31.0462E-03
            4484            4736     21.5843E-03     24.3079E-03
            4484            4753     29.7552E-03     31.9966E-03
            4484            4754     23.2763E-03     25.7898E-03
            4485            4736     21.5843E-03     24.3079E-03
            4485            4737     15.1675E-03     17.8901E-03
            4485            4754     23.2763E-03     25.7898E-03
            4485            4755     17.5453E-03     19.8397E-03
            4486            4737     15.1675E-03     17.8901E-03
            4486            4738     10.2546E-03     11.9597E-03
            4486            4755     17.5453E-03     19.8397E-03
            4486            4756     13.4941E-03     14.9183E-03
            4487             846     8.40076E-03     9.07952E-03
            4487             847     12.0595E-03     12.9088E-03
            4487            4738     10.2546E-03     11.9597E-03
            4487            4756     13.4941E-03     14.9183E-03
            4488             794     134.617E-03     137.380E-03
            4488             795     129.931E-03     132.172E-03
            4488            4739     128.819E-03     131.669E-03
            4488            4757     125.203E-03     127.415E-03
            4489            4739     128.819E-03     131.669E-03
            4489            4740     122.340E-03     125.070E-03
            4489            4757     125.203E-03     127.415E-03
            4489            4758     119.666E-03     121.593E-03
            4490            4740     122.340E-03     125.070E-03
            4490            4741     115.355E-03     117.860E-03
            4490            4758     119.666E-03     121.593E-03
            4490            4759     113.428E-03     115.079E-03
            4491            4741     115.355E-03     117.860E-03
            4491            4742     108.137E-03     110.363E-03
            4491            4759     113.428E-03     115.079E-03
            4491            4760     106.746E-03     108.204E-03
            4492            4742     108.137E-03     110.363E-03
            4492            4743     100.776E-03     102.831E-03
            4492            4760     106.746E-03     108.204E-03
            4492            4761     99.8450E-03     101.164E-03
            4493            4743     100.776E-03     102.831E-03
            4493            4744     93.4543E-03     95.3481E-03
            4493            4761     99.8450E-03     101.164E-03
            4493            4762     92.8315E-03     94.0808E-03
            4494            4744     93.4543E-03     95.3481E-03
            4494            4745     86.1436E-03     87.9401E-03
            4494            4762     92.8315E-03     94.0808E-03
            4494            4763     85.8117E-03     87.0084E-03
            4495            4745     86.1436E-03     87.9401E-03
            4495            4746     78.9004E-03     80.6218E-03
            4495            4763     85.8117E-03     87.0084E-03
            4495            4764     78.7983E-03     79.9729E-03
            4496            4746     78.9004E-03     80.6218E-03
            4496            4747     71.7047E-03     73.3817E-03
            4496            4764     78.7983E-03     79.9729E-03
            4496            4765     71.8303E-03     72.9877E-03
            4497            4747     71.7047E-03     73.3817E-03
            4497            4748     64.5689E-03     66.2191E-03
            4497            4765     71.8303E-03     72.9877E-03
            4497            4766     64.9075E-03     66.0598E-03
            4498            4748     64.5689E-03     66.2191E-03
            4498            4749     57.4842E-03     59.1328E-03
            4498            4766     64.9075E-03     66.0598E-03
            4498            4767     58.0448E-03     59.2005E-03
            4499            4749     57.4842E-03     59.1328E-03
            4499            4750     50.4522E-03     52.1295E-03
            4499            4767     58.0448E-03     59.2005E-03
            4499            4768     51.2507E-03     52.4281E-03
            4500            4750     50.4522E-03     52.1295E-03
            4500            4751     43.4718E-03     45.2387E-03
            4500            4768     51.2507E-03     52.4281E-03
            4500            4769     44.5358E-03     45.7810E-03
            4501            4751     43.4718E-03     45.2387E-03
            4501            4752     36.5595E-03     38.4968E-03
            4501            4769     44.5358E-03     45.7810E-03
            4501            4770     37.9376E-03     39.3285E-03
            4502            4752     36.5595E-03     38.4968E-03
            4502            4753     29.7552E-03     31.9966E-03
            4502            4770     37.9376E-03     39.3285E-03
            4502            4771     31.4910E-03     33.1917E-03
            4503            4753     29.7552E-03     31.9966E-03
            4503            4754     23.2763E-03     25.7898E-03
            4503            4771     31.4910E-03     33.1917E-03
            4503            4772     25.3701E-03     27.6597E-03
            4504            4754     23.2763E-03     25.7898E-03
            4504            4755     17.5453E-03     19.8397E-03
            4504            4772     25.3701E-03     27.6597E-03
            4504            4773     20.2762E-03     22.6749E-03
            4505            4755     17.5453E-03     19.8397E-03
            4505            4756     13.4941E-03     14.9183E-03
            4505            4773     20.2762E-03     22.6749E-03
            4505            4774     16.9561E-03     18.2270E-03
            4506             847     12.0595E-03     12.9088E-03
            4506             848     15.7992E-03     16.2021E-03
            4506            4756     13.4941E-03     14.9183E-03
            4506            4774     16.9561E-03     18.2270E-03
            4507             795     129.931E-03     132.172E-03
            4507             796     124.505E-03     125.617E-03
            4507            4757     125.203E-03     127.415E-03
            4507            4775     120.781E-03     121.645E-03
            4508            4757     125.203E-03     127.415E-03
            4508            4758     119.666E-03     121.593E-03
            4508            4775     120.781E-03     121.645E-03
            4508            4776     115.986E-03     116.643E-03
            4509            4758     119.666E-03     121.593E-03
            4509            4759     113.428E-03     115.079E-03
            4509            4776     115.986E-03     116.643E-03
            4509            4777     110.465E-03     110.972E-03
            4510            4759     113.428E-03     115.079E-03
            4510            4760     106.746E-03     108.204E-03
            4510            4777     110.465E-03     110.972E-03
            4510            4778     104.404E-03     104.900E-03
            4511            4760     106.746E-03     108.204E-03
            4511            4761     99.8450E-03     101.164E-03
            4511            4778     104.404E-03     104.900E-03
            4511            4779     98.0622E-03     98.5739E-03
            4512            4761     99.8450E-03     101.164E-03
            4512            4762     92.8315E-03     94.0808E-03
            4512            4779     98.0622E-03     98.5739E-03
            4512            4780     91.5489E-03     92.0955E-03
            4513            4762     92.8315E-03     94.0808E-03
            4513            4763     85.8117E-03     87.0084E-03
            4513            4780     91.5489E-03     92.0955E-03
            4513            4781     84.9516E-03     85.5453E-03
            4514            4763     85.8117E-03     87.0084E-03
            4514            4764     78.7983E-03     79.9729E-03
            4514            4781     84.9516E-03     85.5453E-03
            4514            4782     78.3309E-03     78.9579E-03
            4515            4764     78.7983E-03     79.9729E-03
            4515            4765     71.8303E-03     72.9877E-03
            4515            4782     78.3309E-03     78.9579E-03
            4515            4783     71.7103E-03     72.3705E-03
            4516            4765     71.8303E-03     72.9877E-03
            4516            4766     64.9075E-03     66.0598E-03
            4516            4783     71.7103E-03     72.3705E-03
            4516            4784     65.1238E-03     65.8031E-03
            4517            4766     64.9075E-03     66.0598E-03
            4517            4767     58.0448E-03     59.2005E-03
            4517            4784     65.1238E-03     65.8031E-03
            4517            4785     58.5878E-03     59.2812E-03
            4518            4767     58.0448E-03     59.2005E-03
            4518            4768     51.2507E-03     52.4281E-03
            4518            4785     58.5878E-03     59.2812E-03
            4518            4786     52.1319E-03     52.8383E-03
            4519            4768     51.2507E-03     52.4281E-03
            4519            4769     44.5358E-03     45.7810E-03
            4519            4786     52.1319E-03     52.8383E-03
            4519            4787     45.7931E-03     46.5176E-03
            4520            4769     44.5358E-03     45.7810E-03
            4520            4770     37.9376E-03     39.3285E-03
            4520            4787     45.7931E-03     46.5176E-03
            4520            4788     39.6089E-03     40.4145E-03
            4521            4770     37.9376E-03     39.3285E-03
            4521            4771     31.4910E-03     33.1917E-03
            4521            4788     39.6089E-03     40.4145E-03
            4521            4789     33.6733E-03     34.6747E-03
            4522            4771     31.4910E-03     33.1917E-03
            4522            4772     25.3701E-03     27.6597E-03
            4522            4789     33.6733E-03     34.6747E-03
            4522            4790     28.0402E-03     29.6344E-03
            4523            4772     25.3701E-03     27.6597E-03
            4523            4773     20.2762E-03     22.6749E-03
            4523            4790     28.0402E-03     29.6344E-03
            4523            4791     23.1252E-03     25.9010E-03
            4524            4773     20.2762E-03     22.6749E-03
            4524            4774     16.9561E-03     18.2270E-03
            4524            4791     23.1252E-03     25.9010E-03
            4524            4792     20.4895E-03     22.9192E-03
            4525             848     15.7992E-03     16.2021E-03
            4525             849     20.0187E-03     21.3917E-03
            4525            4774     16.9561E-03     18.2270E-03
            4525            4792     20.4895E-03     22.9192E-03
            4526             796     124.505E-03     125.617E-03
            4526             797     118.543E-03     117.137E-03
            4526            4775     120.781E-03     121.645E-03
            4526            4793     115.485E-03     114.165E-03
            4527            4775     120.781E-03     121.645E-03
            4527            4776     115.986E-03     116.643E-03
            4527            4793     115.485E-03     114.165E-03
            4527            4794     111.427E-03     110.319E-03
            4528            4776     115.986E-03     116.643E-03
            4528            4777     110.465E-03     110.972E-03
            4528            4794     111.427E-03     110.319E-03
            4528            4795     106.585E-03     105.789E-03
            4529            4777     110.465E-03     110.972E-03
            4529            4778     104.404E-03     104.900E-03
            4529            4795     106.585E-03     105.789E-03
            4529            4796     101.303E-03     100.769E-03
            4530            4778     104.404E-03     104.900E-03
            4530            4779     98.0622E-03     98.5739E-03
            4530            4796     101.303E-03     100.769E-03
            4530            4797     95.6559E-03     95.3517E-03
            4531            4779     98.0622E-03     98.5739E-03
            4531            4780     91.5489E-03     92.0955E-03
            4531            4797     95.6559E-03     95.3517E-03
            4531            4798     89.7932E-03     89.6775E-03
            4532            4780     91.5489E-03     92.0955E-03
            4532            4781     84.9516E-03     85.5453E-03
            4532            4798     89.7932E-03     89.6775E-03
            4532            4799     83.7784E-03     83.7980E-03
            4533            4781     84.9516E-03     85.5453E-03
            4533            4782     78.3309E-03     78.9579E-03
            4533            4799     83.7784E-03     83.7980E-03
            4533            4800     77.6707E-03     77.8024E-03
            4534            4782     78.3309E-03     78.9579E-03
            4534            4783     71.7103E-03     72.3705E-03
            4534            4800     77.6707E-03     77.8024E-03
            4534            4801     71.5211E-03     71.7266E-03
            4535            4783     71.7103E-03     72.3705E-03
            4535            4784     65.1238E-03     65.8031E-03
            4535            4801     71.5211E-03     71.7266E-03
            4535            4802     65.3610E-03     65.6248E-03
            4536            4784     65.1238E-03     65.8031E-03
            4536            4785     58.5878E-03     59.2812E-03
            4536            4802     65.3610E-03     65.6248E-03
            4536            4803     59.2398E-03     59.5348E-03
            4537            4785     58.5878E-03     59.2812E-03
            4537            4786     52.1319E-03     52.8383E-03
            4537            4803     59.2398E-03     59.5348E-03
            4537            4804     53.1957E-03     53.5033E-03
            4538            4786     52.1319E-03     52.8383E-03
            4538            4787     45.7931E-03     46.5176E-03
            4538            4804     53.1957E-03     53.5033E-03
            4538            4805     47.2999E-03     47.5918E-03
            4539            4787     45.7931E-03     46.5176E-03
            4539            4788     39.6089E-03     40.4145E-03
            4539            4805     47.2999E-03     47.5918E-03
            4539            4806     41.6191E-03     41.8838E-03
            4540            4788     39.6089E-03     40.4145E-03
            4540            4789     33.6733E-03     34.6747E-03
            4540            4806     41.6191E-03     41.8838E-03
            4540            4807     36.2806E-03     36.5348E-03
            4541            4789     33.6733E-03     34.6747E-03
            4541            4790     28.0402E-03     29.6344E-03
            4541            4807     36.2806E-03     36.5348E-03
            4541            4808     31.3672E-03     31.8078E-03
            4542            4790     28.0402E-03     29.6344E-03
            4542            4791     23.1252E-03     25.9010E-03
            4542            4808     31.3672E-03     31.8078E-03
            4542            4809     26.9752E-03     28.4237E-03
            4543            4791     23.1252E-03     25.9010E-03
            4543            4792     20.4895E-03     22.9192E-03
            4543            4809     26.9752E-03     28.4237E-03
            4543            4810     23.6014E-03     27.2781E-03
            4544             849     20.0187E-03     21.3917E-03
            4544             850     22.2611E-03     27.3484E-03
            4544            4792     20.4895E-03     22.9192E-03
            4544            4810     23.6014E-03     27.2781E-03
            4545             797     118.543E-03     117.137E-03
            4545             798     106.251E-03     106.586E-03
            4545            4793     115.485E-03     114.165E-03
            4545            4811     100.149E-03     100.381E-03
            4546            4793     115.485E-03     114.165E-03
            4546            4794     111.427E-03     110.319E-03
            4546            4811     100.149E-03     100.381E-03
            4546            4812     94.4391E-03     95.0419E-03
            4547            4794     111.427E-03     110.319E-03
            4547            4795     106.585E-03     105.789E-03
            4547            4812     94.4391E-03     95.0419E-03
            4547            4813     89.2295E-03     90.1112E-03
            4548            4795     106.585E-03     105.789E-03
            4548            4796     101.303E-03     100.769E-03
            4548            4813     89.2295E-03     90.1112E-03
            4548            4814     84.0256E-03     85.2808E-03
            4549            4796     101.303E-03     100.769E-03
            4549            4797     95.6559E-03     95.3517E-03
            4549            4814     84.0256E-03     85.2808E-03
            4549            4815     78.9350E-03     80.4143E-03
            4550            4797     95.6559E-03     95.3517E-03
            4550            4798     89.7932E-03     89.6775E-03
            4550            4815     78.9350E-03     80.4143E-03
            4550            4816     73.7790E-03     75.4809E-03
            4551            4798     89.7932E-03     89.6775E-03
            4551            4799     83.7784E-03     83.7980E-03
            4551            4816     73.7790E-03     75.4809E-03
            4551            4817     68.6267E-03     70.4536E-03
            4552            4799     83.7784E-03     83.7980E-03
            4552            4800     77.6707E-03     77.8024E-03
            4552            4817     68.6267E-03     70.4536E-03
            4552            4818     63.4151E-03     65.3562E-03
            4553            4800     77.6707E-03     77.8024E-03
            4553            4801     71.5211E-03     71.7266E-03
            4553            4818     63.4151E-03     65.3562E-03
            4553            4819     58.1894E-03     60.1890E-03
            4554            4801     71.5211E-03     71.7266E-03
            4554            4802     65.3610E-03     65.6248E-03
            4554            4819     58.1894E-03     60.1890E-03
            4554            4820     52.9372E-03     54.9886E-03
            4555            4802     65.3610E-03     65.6248E-03
            4555            4803     59.2398E-03     59.5348E-03
            4555            4820     52.9372E-03     54.9886E-03
            4555            4821     47.6981E-03     49.7626E-03
            4556            4803     59.2398E-03     59.5348E-03
            4556            4804     53.1957E-03     53.5033E-03
            4556            4821     47.6981E-03     49.7626E-03
            4556            4822     42.4894E-03     44.5494E-03
            4557            4804     53.1957E-03     53.5033E-03
            4557            4805     47.2999E-03     47.5918E-03
            4557            4822     42.4894E-03     44.5494E-03
            4557            4823     37.3649E-03     39.3705E-03
            4558            4805     47.2999E-03     47.5918E-03
            4558            4806     41.6191E-03     41.8838E-03
            4558            4823     37.3649E-03     39.3705E-03
            4558            4824     32.3719E-03     34.2691E-03
            4559            4806     41.6191E-03     41.8838E-03
            4559            4807     36.2806E-03     36.5348E-03
            4559            4824     32.3719E-03     34.2691E-03
            4559            4825     27.6001E-03     29.3248E-03
            4560            4807     36.2806E-03     36.5348E-03
            4560            4808     31.3672E-03     31.8078E-03
            4560            4825     27.6001E-03     29.3248E-03
            4560            4826     23.1381E-03     24.6040E-03
            4561            4808     31.3672E-03     31.8078E-03
            4561            4809     26.9752E-03     28.4237E-03
            4561            4826     23.1381E-03     24.6040E-03
            4561            4827     19.1004E-03     20.4985E-03
            4562            4809     26.9752E-03     28.4237E-03
            4562            4810     23.6014E-03     27.2781E-03
            4562            4827     19.1004E-03     20.4985E-03
            4562            4828     15.1220E-03     17.7747E-03
            4563             850     22.2611E-03     27.3484E-03
            4563             851     13.0305E-03     16.8506E-03
            4563            4810     23.6014E-03     27.2781E-03
            4563            4828     15.1220E-03     17.7747E-03
            4564             798     106.251E-03     106.586E-03
            4564             799     99.6922E-03     103.081E-03
            4564            4811     100.149E-03     100.381E-03
            4564            4829     88.8457E-03     92.0429E-03
            4565            4811     100.149E-03     100.381E-03
            4565            4812     94.4391E-03     95.0419E-03
            4565            4829     88.8457E-03     92.0429E-03
            4565            4830     81.2857E-03     84.4504E-03
            4566            4812     94.4391E-03     95.0419E-03
            4566            4813     89.2295E-03     90.1112E-03
            4566            4830     81.2857E-03     84.4504E-03
            4566            4831     74.9085E-03     78.1869E-03
            4567            4813     89.2295E-03     90.1112E-03
            4567            4814     84.0256E-03     85.2808E-03
            4567            4831     74.9085E-03     78.1869E-03
            4567            4832     69.4274E-03     72.8145E-03
            4568            4814     84.0256E-03     85.2808E-03
            4568            4815     78.9350E-03     80.4143E-03
            4568            4832     69.4274E-03     72.8145E-03
            4568            4833     64.3267E-03     67.8303E-03
            4569            4815     78.9350E-03     80.4143E-03
            4569            4816     73.7790E-03     75.4809E-03
            4569            4833     64.3267E-03     67.8303E-03
            4569            4834     59.4990E-03     63.0893E-03
            4570            4816     73.7790E-03     75.4809E-03
            4570            4817     68.6267E-03     70.4536E-03
            4570            4834     59.4990E-03     63.0893E-03
            4570            4835     54.7770E-03     58.4310E-03
            4571            4817     68.6267E-03     70.4536E-03
            4571            4818     63.4151E-03     65.3562E-03
            4571            4835     54.7770E-03     58.4310E-03
            4571            4836     50.1202E-03     53.8164E-03
            4572            4818     63.4151E-03     65.3562E-03
            4572            4819     58.1894E-03     60.1890E-03
            4572            4836     50.1202E-03     53.8164E-03
            4572            4837     45.4758E-03     49.1940E-03
            4573            4819     58.1894E-03     60.1890E-03
            4573            4820     52.9372E-03     54.9886E-03
            4573            4837     45.4758E-03     49.1940E-03
            4573            4838     40.8330E-03     44.5583E-03
            4574            4820     52.9372E-03     54.9886E-03
            4574            4821     47.6981E-03     49.7626E-03
            4574            4838     40.8330E-03     44.5583E-03
            4574            4839     36.1810E-03     39.8943E-03
            4575            4821     47.6981E-03     49.7626E-03
            4575            4822     42.4894E-03     44.5494E-03
            4575            4839     36.1810E-03     39.8943E-03
            4575            4840     31.5233E-03     35.2013E-03
            4576            4822     42.4894E-03     44.5494E-03
            4576            4823     37.3649E-03     39.3705E-03
            4576            4840     31.5233E-03     35.2013E-03
            4576            4841     26.8649E-03     30.4758E-03
            4577            4823     37.3649E-03     39.3705E-03
            4577            4824     32.3719E-03     34.2691E-03
            4577            4841     26.8649E-03     30.4758E-03
            4577            4842     22.2225E-03     25.7118E-03
            4578            4824     32.3719E-03     34.2691E-03
            4578            4825     27.6001E-03     29.3248E-03
            4578            4842     22.2225E-03     25.7118E-03
            4578            4843     17.6077E-03     20.9081E-03
            4579            4825     27.6001E-03     29.3248E-03
            4579            4826     23.1381E-03     24.6040E-03
            4579            4843     17.6077E-03     20.9081E-03
            4579            4844     13.0555E-03     16.0671E-03
            4580            4826     23.1381E-03     24.6040E-03
            4580            4827     19.1004E-03     20.4985E-03
            4580            4844     13.0555E-03     16.0671E-03
            4580            4845     8.63488E-03     11.1980E-03
            4581            4827     19.1004E-03     20.4985E-03
            4581            4828     15.1220E-03     17.7747E-03
            4581            4845     8.63488E-03     11.1980E-03
            4581            4846     4.27032E-03     6.80835E-03
            4582             851     13.0305E-03     16.8506E-03
            4582             852     2.06923E-03     4.85224E-03
            4582            4828     15.1220E-03     17.7747E-03
            4582            4846     4.27032E-03     6.80835E-03
            4583             799     99.6922E-03     103.081E-03
            4583             800     103.198E-03     105.177E-03
            4583            4829     88.8457E-03     92.0429E-03
            4583            4847     91.5007E-03     94.4134E-03
            4584            4829     88.8457E-03     92.0429E-03
            4584            4830     81.2857E-03     84.4504E-03
            4584            4847     91.5007E-03     94.4134E-03
            4584            4848     83.4802E-03     86.5624E-03
            4585            4830     81.2857E-03     84.4504E-03
            4585            4831     74.9085E-03     78.1869E-03
            4585            4848     83.4802E-03     86.5624E-03
            4585            4849     76.9478E-03     80.0499E-03
            4586            4831     74.9085E-03     78.1869E-03
            4586            4832     69.4274E-03     72.8145E-03
            4586            4849     76.9478E-03     80.0499E-03
            4586            4850     71.2266E-03     74.3710E-03
            4587            4832     69.4274E-03     72.8145E-03
            4587            4833     64.3267E-03     67.8303E-03
            4587            4850     71.2266E-03     74.3710E-03
            4587            4851     66.0051E-03     69.1416E-03
            4588            4833     64.3267E-03     67.8303E-03
            4588            4834     59.4990E-03     63.0893E-03
            4588            4851     66.0051E-03     69.1416E-03
            4588            4852     61.0068E-03     64.1567E-03
            4589            4834     59.4990E-03     63.0893E-03
            4589            4835     54.7770E-03     58.4310E-03
            4589            4852     61.0068E-03     64.1567E-03
            4589            4853     56.1520E-03     59.2996E-03
            4590            4835     54.7770E-03     58.4310E-03
            4590            4836     50.1202E-03     53.8164E-03
            4590            4853     56.1520E-03     59.2996E-03
            4590            4854     51.3467E-03     54.4967E-03
            4591            4836     50.1202E-03     53.8164E-03
            4591            4837     45.4758E-03     49.1940E-03
            4591            4854     51.3467E-03     54.4967E-03
            4591            4855     46.5719E-03     49.7170E-03
            4592            4837     45.4758E-03     49.1940E-03
            4592            4838     40.8330E-03     44.5583E-03
            4592            4855     46.5719E-03     49.7170E-03
            4592            4856     41.8002E-03     44.9357E-03
            4593            4838     40.8330E-03     44.5583E-03
            4593            4839     36.1810E-03     39.8943E-03
            4593            4856     41.8002E-03     44.9357E-03
            4593            4857     37.0303E-03     40.1475E-03
            4594            4839     36.1810E-03     39.8943E-03
            4594            4840     31.5233E-03     35.2013E-03
            4594            4857     37.0303E-03     40.1475E-03
            4594            4858     32.2585E-03     35.3448E-03
            4595            4840     31.5233E-03     35.2013E-03
            4595            4841     26.8649E-03     30.4758E-03
            4595            4858     32.2585E-03     35.3448E-03
            4595            4859     27.4914E-03     30.5236E-03
            4596            4841     26.8649E-03     30.4758E-03
            4596            4842     22.2225E-03     25.7118E-03
            4596            4859     27.4914E-03     30.5236E-03
            4596            4860     22.7318E-03     25.6835E-03
            4597            4842     22.2225E-03     25.7118E-03
            4597            4843     17.6077E-03     20.9081E-03
            4597            4860     22.7318E-03     25.6835E-03
            4597            4861     17.9964E-03     20.8166E-03
            4598            4843     17.6077E-03     20.9081E-03
            4598            4844     13.0555E-03     16.0671E-03
            4598            4861     17.9964E-03     20.8166E-03
            4598            4862     13.2931E-03     15.9230E-03
            4599            4844     13.0555E-03     16.0671E-03
            4599            4845     8.63488E-03     11.1980E-03
            4599            4862     13.2931E-03     15.9230E-03
            4599            4863     8.61647E-03     11.1013E-03
            4600            4845     8.63488E-03     11.1980E-03
            4600            4846     4.27032E-03     6.80835E-03
            4600            4863     8.61647E-03     11.1013E-03
            4600            4864     4.08353E-03     6.55781E-03
            4601             852     2.06923E-03     4.85224E-03
            4601             853     1.88512E-03     4.38895E-03
            4601            4846     4.27032E-03     6.80835E-03
            4601            4864     4.08353E-03     6.55781E-03
            4602             800     103.198E-03     105.177E-03
            4602             801     102.220E-03     104.124E-03
            4602            4847     91.5007E-03     94.4134E-03
            4602            4865     93.1211E-03     95.4846E-03
            4603            4847     91.5007E-03     94.4134E-03
            4603            4848     83.4802E-03     86.5624E-03
            4603            4865     93.1211E-03     95.4846E-03
            4603            4866     85.1157E-03     87.9282E-03
            4604            4848     83.4802E-03     86.5624E-03
            4604            4849     76.9478E-03     80.0499E-03
            4604            4866     85.1157E-03     87.9282E-03
            4604            4867     78.6899E-03     81.5417E-03
            4605            4849     76.9478E-03     80.0499E-03
            4605            4850     71.2266E-03     74.3710E-03
            4605            4867     78.6899E-03     81.5417E-03
            4605            4868     72.9117E-03     75.7272E-03
            4606            4850     71.2266E-03     74.3710E-03
            4606            4851     66.0051E-03     69.1416E-03
            4606            4868     72.9117E-03     75.7272E-03
            4606            4869     67.5709E-03     70.3348E-03
            4607            4851     66.0051E-03     69.1416E-03
            4607            4852     61.0068E-03     64.1567E-03
            4607            4869     67.5709E-03     70.3348E-03
            4607            4870     62.4605E-03     65.1579E-03
            4608            4852     61.0068E-03     64.1567E-03
            4608            4853     56.1520E-03     59.2996E-03
            4608            4870     62.4605E-03     65.1579E-03
            4608            4871     57.4689E-03     60.1237E-03
            4609            4853     56.1520E-03     59.2996E-03
            4609            4854     51.3467E-03     54.4967E-03
            4609            4871     57.4689E-03     60.1237E-03
            4609            4872     52.5494E-03     55.1643E-03
            4610            4854     51.3467E-03     54.4967E-03
            4610            4855     46.5719E-03     49.7170E-03
            4610            4872     52.5494E-03     55.1643E-03
            4610            4873     47.6615E-03     50.2497E-03
            4611            4855     46.5719E-03     49.7170E-03
            4611            4856     41.8002E-03     44.9357E-03
            4611            4873     47.6615E-03     50.2497E-03
            4611            4874     42.7966E-03     45.3611E-03
            4612            4856     41.8002E-03     44.9357E-03
            4612            4857     37.0303E-03     40.1475E-03
            4612            4874     42.7966E-03     45.3611E-03
            4612            4875     37.9435E-03     40.4870E-03
            4613            4857     37.0303E-03     40.1475E-03
            4613            4858     32.2585E-03     35.3448E-03
            4613            4875     37.9435E-03     40.4870E-03
            4613            4876     33.1029E-03     35.6256E-03
            4614            4858     32.2585E-03     35.3448E-03
            4614            4859     27.4914E-03     30.5236E-03
            4614            4876     33.1029E-03     35.6256E-03
            4614            4877     28.2788E-03     30.7739E-03
            4615            4859     27.4914E-03     30.5236E-03
            4615            4860     22.7318E-03     25.6835E-03
            4615            4877     28.2788E-03     30.7739E-03
            4615            4878     23.4792E-03     25.9294E-03
            4616            4860     22.7318E-03     25.6835E-03
            4616            4861     17.9964E-03     20.8166E-03
            4616            4878     23.4792E-03     25.9294E-03
            4616            4879     18.7254E-03     21.1027E-03
            4617            4861     17.9964E-03     20.8166E-03
            4617            4862     13.2931E-03     15.9230E-03
            4617            4879     18.7254E-03     21.1027E-03
            4617            4880     14.0503E-03     16.3056E-03
            4618            4862     13.2931E-03     15.9230E-03
            4618            4863     8.61647E-03     11.1013E-03
            4618            4880     14.0503E-03     16.3056E-03
            4618            4881     9.53630E-03     11.6532E-03
            4619            4863     8.61647E-03     11.1013E-03
            4619            4864     4.08353E-03     6.55781E-03
            4619            4881     9.53630E-03     11.6532E-03
            4619            4882     5.89923E-03     7.13695E-03
            4620             853     1.88512E-03     4.38895E-03
            4620             854     4.45939E-03     4.88008E-03
            4620            4864     4.08353E-03     6.55781E-03
            4620            4882     5.89923E-03     7.13695E-03
            4621             801     102.220E-03     104.124E-03
            4621             802     98.9422E-03     101.114E-03
            4621            4865     93.1211E-03     95.4846E-03
            4621            4883     92.3088E-03     94.6320E-03
            4622            4865     93.1211E-03     95.4846E-03
            4622            4866     85.1157E-03     87.9282E-03
            4622            4883     92.3088E-03     94.6320E-03
            4622            4884     85.8195E-03     88.2597E-03
            4623            4866     85.1157E-03     87.9282E-03
            4623            4867     78.6899E-03     81.5417E-03
            4623            4884     85.8195E-03     88.2597E-03
            4623            4885     79.7100E-03     82.2398E-03
            4624            4867     78.6899E-03     81.5417E-03
            4624            4868     72.9117E-03     75.7272E-03
            4624            4885     79.7100E-03     82.2398E-03
            4624            4886     74.1667E-03     76.5859E-03
            4625            4868     72.9117E-03     75.7272E-03
            4625            4869     67.5709E-03     70.3348E-03
            4625            4886     74.1667E-03     76.5859E-03
            4625            4887     68.8233E-03     71.1408E-03
            4626            4869     67.5709E-03     70.3348E-03
            4626            4870     62.4605E-03     65.1579E-03
            4626            4887     68.8233E-03     71.1408E-03
            4626            4888     63.6657E-03     65.8833E-03
            4627            4870     62.4605E-03     65.1579E-03
            4627            4871     57.4689E-03     60.1237E-03
            4627            4888     63.6657E-03     65.8833E-03
            4627            4889     58.6000E-03     60.7362E-03
            4628            4871     57.4689E-03     60.1237E-03
            4628            4872     52.5494E-03     55.1643E-03
            4628            4889     58.6000E-03     60.7362E-03
            4628            4890     53.6021E-03     55.6807E-03
            4629            4872     52.5494E-03     55.1643E-03
            4629            4873     47.6615E-03     50.2497E-03
            4629            4890     53.6021E-03     55.6807E-03
            4629            4891     48.6502E-03     50.6849E-03
            4630            4873     47.6615E-03     50.2497E-03
            4630            4874     42.7966E-03     45.3611E-03
            4630            4891     48.6502E-03     50.6849E-03
            4630            4892     43.7326E-03     45.7379E-03
            4631            4874     42.7966E-03     45.3611E-03
            4631            4875     37.9435E-03     40.4870E-03
            4631            4892     43.7326E-03     45.7379E-03
            4631            4893     38.8452E-03     40.8331E-03
            4632            4875     37.9435E-03     40.4870E-03
            4632            4876     33.1029E-03     35.6256E-03
            4632            4893     38.8452E-03     40.8331E-03
            4632            4894     33.9875E-03     35.9669E-03
            4633            4876     33.1029E-03     35.6256E-03
            4633            4877     28.2788E-03     30.7739E-03
            4633            4894     33.9875E-03     35.9669E-03
            4633            4895     29.1611E-03     31.1487E-03
            4634            4877     28.2788E-03     30.7739E-03
            4634            4878     23.4792E-03     25.9294E-03
            4634            4895     29.1611E-03     31.1487E-03
            4634            4896     24.3920E-03     26.3840E-03
            4635            4878     23.4792E-03     25.9294E-03
            4635            4879     18.7254E-03     21.1027E-03
            4635            4896     24.3920E-03     26.3840E-03
            4635            4897     19.7081E-03     21.6758E-03
            4636            4879     18.7254E-03     21.1027E-03
            4636            4880     14.0503E-03     16.3056E-03
            4636            4897     19.7081E-03     21.6758E-03
            4636            4898     15.1962E-03     17.1043E-03
            4637            4880     14.0503E-03     16.3056E-03
            4637            4881     9.53630E-03     11.6532E-03
            4637            4898     15.1962E-03     17.1043E-03
            4637            4899     11.1396E-03     12.6517E-03
            4638            4881     9.53630E-03     11.6532E-03
            4638            4882     5.89923E-03     7.13695E-03
            4638            4899     11.1396E-03     12.6517E-03
            4638            4900     8.12721E-03     8.73337E-03
            4639             854     4.45939E-03     4.88008E-03
            4639             855     6.98034E-03     7.03457E-03
            4639            4882     5.89923E-03     7.13695E-03
            4639            4900     8.12721E-03     8.73337E-03
            4640             802     98.9422E-03     101.114E-03
            4640             803     95.2618E-03     97.0746E-03
            4640            4883     92.3088E-03     94.6320E-03
            4640            4901     90.2040E-03     92.4209E-03
            4641            4883     92.3088E-03     94.6320E-03
            4641            4884     85.8195E-03     88.2597E-03
            4641            4901     90.2040E-03     92.4209E-03
            4641            4902     85.1424E-03     87.3543E-03
            4642            4884     85.8195E-03     88.2597E-03
            4642            4885     79.7100E-03     82.2398E-03
            4642            4902     85.1424E-03     87.3543E-03
            4642            4903     79.9742E-03     82.0335E-03
            4643            4885     79.7100E-03     82.2398E-03
            4643            4886     74.1667E-03     76.5859E-03
            4643            4903     79.9742E-03     82.0335E-03
            4643            4904     74.7294E-03     76.6772E-03
            4644            4886     74.1667E-03     76.5859E-03
            4644            4887     68.8233E-03     71.1408E-03
            4644            4904     74.7294E-03     76.6772E-03
            4644            4905     69.5855E-03     71.3726E-03
            4645            4887     68.8233E-03     71.1408E-03
            4645            4888     63.6657E-03     65.8833E-03
            4645            4905     69.5855E-03     71.3726E-03
            4645            4906     64.4609E-03     66.1384E-03
            4646            4888     63.6657E-03     65.8833E-03
            4646            4889     58.6000E-03     60.7362E-03
            4646            4906     64.4609E-03     66.1384E-03
            4646            4907     59.4098E-03     60.9962E-03
            4647            4889     58.6000E-03     60.7362E-03
            4647            4890     53.6021E-03     55.6807E-03
            4647            4907     59.4098E-03     60.9962E-03
            4647            4908     54.4036E-03     55.9264E-03
            4648            4890     53.6021E-03     55.6807E-03
            4648            4891     48.6502E-03     50.6849E-03
            4648            4908     54.4036E-03     55.9264E-03
            4648            4909     49.4508E-03     50.9293E-03
            4649            4891     48.6502E-03     50.6849E-03
            4649            4892     43.7326E-03     45.7379E-03
            4649            4909     49.4508E-03     50.9293E-03
            4649            4910     44.5436E-03     45.9942E-03
            4650            4892     43.7326E-03     45.7379E-03
            4650            4893     38.8452E-03     40.8331E-03
            4650            4910     44.5436E-03     45.9942E-03
            4650            4911     39.6821E-03     41.1206E-03
            4651            4893     38.8452E-03     40.8331E-03
            4651            4894     33.9875E-03     35.9669E-03
            4651            4911     39.6821E-03     41.1206E-03
            4651            4912     34.8670E-03     36.3163E-03
            4652            4894     33.9875E-03     35.9669E-03
            4652            4895     29.1611E-03     31.1487E-03
            4652            4912     34.8670E-03     36.3163E-03
            4652            4913     30.1087E-03     31.5903E-03
            4653            4895     29.1611E-03     31.1487E-03
            4653            4896     24.3920E-03     26.3840E-03
            4653            4913     30.1087E-03     31.5903E-03
            4653            4914     25.4218E-03     26.9776E-03
            4654            4896     24.3920E-03     26.3840E-03
            4654            4897     19.7081E-03     21.6758E-03
            4654            4914     25.4218E-03     26.9776E-03
            4654            4915     20.8877E-03     22.5055E-03
            4655            4897     19.7081E-03     21.6758E-03
            4655            4898     15.1962E-03     17.1043E-03
            4655            4915     20.8877E-03     22.5055E-03
            4655            4916     16.6414E-03     18.1672E-03
            4656            4898     15.1962E-03     17.1043E-03
            4656            4899     11.1396E-03     12.6517E-03
            4656            4916     16.6414E-03     18.1672E-03
            4656            4917     12.9610E-03     14.1905E-03
            4657            4899     11.1396E-03     12.6517E-03
            4657            4900     8.12721E-03     8.73337E-03
            4657            4917     12.9610E-03     14.1905E-03
            4657            4918     10.4926E-03     10.8087E-03
            4658             855     6.98034E-03     7.03457E-03
            4658             856     9.67001E-03     9.26790E-03
            4658            4900     8.12721E-03     8.73337E-03
            4658            4918     10.4926E-03     10.8087E-03
            4659             803     95.2618E-03     97.0746E-03
            4659             804     90.8909E-03     92.7054E-03
            4659            4901     90.2040E-03     92.4209E-03
            4659            4919     87.4676E-03     89.3473E-03
            4660            4901     90.2040E-03     92.4209E-03
            4660            4902     85.1424E-03     87.3543E-03
            4660            4919     87.4676E-03     89.3473E-03
            4660            4920     83.6421E-03     85.3897E-03
            4661            4902     85.1424E-03     87.3543E-03
            4661            4903     79.9742E-03     82.0335E-03
            4661            4920     83.6421E-03     85.3897E-03
            4661            4921     79.3035E-03     80.8310E-03
            4662            4903     79.9742E-03     82.0335E-03
            4662            4904     74.7294E-03     76.6772E-03
            4662            4921     79.3035E-03     80.8310E-03
            4662            4922     74.5982E-03     75.9079E-03
            4663            4904     74.7294E-03     76.6772E-03
            4663            4905     69.5855E-03     71.3726E-03
            4663            4922     74.5982E-03     75.9079E-03
            4663            4923     69.6904E-03     70.8721E-03
            4664            4905     69.5855E-03     71.3726E-03
            4664            4906     64.4609E-03     66.1384E-03
            4664            4923     69.6904E-03     70.8721E-03
            4664            4924     64.7522E-03     65.8189E-03
            4665            4906     64.4609E-03     66.1384E-03
            4665            4907     59.4098E-03     60.9962E-03
            4665            4924     64.7522E-03     65.8189E-03
            4665            4925     59.7973E-03     60.7969E-03
            4666            4907     59.4098E-03     60.9962E-03
            4666            4908     54.4036E-03     55.9264E-03
            4666            4925     59.7973E-03     60.7969E-03
            4666            4926     54.8847E-03     55.8326E-03
            4667            4908     54.4036E-03     55.9264E-03
            4667            4909     49.4508E-03     50.9293E-03
            4667            4926     54.8847E-03     55.8326E-03
            4667            4927     50.0113E-03     50.9282E-03
            4668            4909     49.4508E-03     50.9293E-03
            4668            4910     44.5436E-03     45.9942E-03
            4668            4927     50.0113E-03     50.9282E-03
            4668            4928     45.1930E-03     46.0911E-03
            4669            4910     44.5436E-03     45.9942E-03
            4669            4911     39.6821E-03     41.1206E-03
            4669            4928     45.1930E-03     46.0911E-03
            4669            4929     40.4307E-03     41.3259E-03
            4670            4911     39.6821E-03     41.1206E-03
            4670            4912     34.8670E-03     36.3163E-03
            4670            4929     40.4307E-03     41.3259E-03
            4670            4930     35.7310E-03     36.6456E-03
            4671            4912     34.8670E-03     36.3163E-03
            4671            4913     30.1087E-03     31.5903E-03
            4671            4930     35.7310E-03     36.6456E-03
            4671            4931     31.1067E-03     32.0806E-03
            4672            4913     30.1087E-03     31.5903E-03
            4672            4914     25.4218E-03     26.9776E-03
            4672            4931     31.1067E-03     32.0806E-03
            4672            4932     26.5831E-03     27.6699E-03
            4673            4914     25.4218E-03     26.9776E-03
            4673            4915     20.8877E-03     22.5055E-03
            4673            4932     26.5831E-03     27.6699E-03
            4673            4933     22.2254E-03     23.5044E-03
            4674            4915     20.8877E-03     22.5055E-03
            4674            4916     16.6414E-03     18.1672E-03
            4674            4933     22.2254E-03     23.5044E-03
            4674            4934     18.2559E-03     19.6088E-03
            4675            4916     16.6414E-03     18.1672E-03
            4675            4917     12.9610E-03     14.1905E-03
            4675            4934     18.2559E-03     19.6088E-03
            4675            4935     14.9755E-03     15.9984E-03
            4676            4917     12.9610E-03     14.1905E-03
            4676            4918     10.4926E-03     10.8087E-03
            4676            4935     14.9755E-03     15.9984E-03
            4676            4936     12.8652E-03     13.2302E-03
            4677             856     9.67001E-03     9.26790E-03
            4677             857     12.1870E-03     12.1794E-03
            4677            4918     10.4926E-03     10.8087E-03
            4677            4936     12.8652E-03     13.2302E-03
            4678             804     90.8909E-03     92.7054E-03
            4678             805     86.2040E-03     87.6393E-03
            4678            4919     87.4676E-03     89.3473E-03
            4678            4937     84.2562E-03     85.5801E-03
            4679            4919     87.4676E-03     89.3473E-03
            4679            4920     83.6421E-03     85.3897E-03
            4679            4937     84.2562E-03     85.5801E-03
            4679            4938     81.5437E-03     82.5194E-03
            4680            4920     83.6421E-03     85.3897E-03
            4680            4921     79.3035E-03     80.8310E-03
            4680            4938     81.5437E-03     82.5194E-03
            4680            4939     77.8783E-03     78.6067E-03
            4681            4921     79.3035E-03     80.8310E-03
            4681            4922     74.5982E-03     75.9079E-03
            4681            4939     77.8783E-03     78.6067E-03
            4681            4940     73.6656E-03     74.2334E-03
            4682            4922     74.5982E-03     75.9079E-03
            4682            4923     69.6904E-03     70.8721E-03
            4682            4940     73.6656E-03     74.2334E-03
            4682            4941     69.1436E-03     69.6039E-03
            4683            4923     69.6904E-03     70.8721E-03
            4683            4924     64.7522E-03     65.8189E-03
            4683            4941     69.1436E-03     69.6039E-03
            4683            4942     64.4632E-03     64.8770E-03
            4684            4924     64.7522E-03     65.8189E-03
            4684            4925     59.7973E-03     60.7969E-03
            4684            4942     64.4632E-03     64.8770E-03
            4684            4943     59.7455E-03     60.1234E-03
            4685            4925     59.7973E-03     60.7969E-03
            4685            4926     54.8847E-03     55.8326E-03
            4685            4943     59.7455E-03     60.1234E-03
            4685            4944     55.0195E-03     55.3858E-03
            4686            4926     54.8847E-03     55.8326E-03
            4686            4927     50.0113E-03     50.9282E-03
            4686            4944     55.0195E-03     55.3858E-03
            4686            4945     50.3305E-03     50.6873E-03
            4687            4927     50.0113E-03     50.9282E-03
            4687            4928     45.1930E-03     46.0911E-03
            4687            4945     50.3305E-03     50.6873E-03
            4687            4946     45.6856E-03     46.0419E-03
            4688            4928     45.1930E-03     46.0911E-03
            4688            4929     40.4307E-03     41.3259E-03
            4688            4946     45.6856E-03     46.0419E-03
            4688            4947     41.1029E-03     41.4665E-03
            4689            4929     40.4307E-03     41.3259E-03
            4689            4930     35.7310E-03     36.6456E-03
            4689            4947     41.1029E-03     41.4665E-03
            4689            4948     36.5957E-03     36.9819E-03
            4690            4930     35.7310E-03     36.6456E-03
            4690            4931     31.1067E-03     32.0806E-03
            4690            4948     36.5957E-03     36.9819E-03
            4690            4949     32.1783E-03     32.6284E-03
            4691            4931     31.1067E-03     32.0806E-03
            4691            4932     26.5831E-03     27.6699E-03
            4691            4949     32.1783E-03     32.6284E-03
            4691            4950     27.8922E-03     28.4716E-03
            4692            4932     26.5831E-03     27.6699E-03
            4692            4933     22.2254E-03     23.5044E-03
            4692            4950     27.8922E-03     28.4716E-03
            4692            4951     23.7752E-03     24.6186E-03
            4693            4933     22.2254E-03     23.5044E-03
            4693            4934     18.2559E-03     19.6088E-03
            4693            4951     23.7752E-03     24.6186E-03
            4693            4952     19.9945E-03     21.2834E-03
            4694            4934     18.2559E-03     19.6088E-03
            4694            4935     14.9755E-03     15.9984E-03
            4694            4952     19.9945E-03     21.2834E-03
            4694            4953     17.0817E-03     18.3346E-03
            4695            4935     14.9755E-03     15.9984E-03
            4695            4936     12.8652E-03     13.2302E-03
            4695            4953     17.0817E-03     18.3346E-03
            4695            4954     15.3320E-03     15.7015E-03
            4696             857     12.1870E-03     12.1794E-03
            4696             858     14.7346E-03     14.5155E-03
            4696            4936     12.8652E-03     13.2302E-03
            4696            4954     15.3320E-03     15.7015E-03
            4697             805     86.2040E-03     87.6393E-03
            4697             806     81.3794E-03     81.8684E-03
            4697            4937     84.2562E-03     85.5801E-03
            4697            4955     80.8944E-03     80.9575E-03
            4698            4937     84.2562E-03     85.5801E-03
            4698            4938     81.5437E-03     82.5194E-03
            4698            4955     80.8944E-03     80.9575E-03
            4698            4956     78.7806E-03     78.6174E-03
            4699            4938     81.5437E-03     82.5194E-03
            4699            4939     77.8783E-03     78.6067E-03
            4699            4956     78.7806E-03     78.6174E-03
            4699            4957     75.7193E-03     75.4228E-03
            4700            4939     77.8783E-03     78.6067E-03
            4700            4940     73.6656E-03     74.2334E-03
            4700            4957     75.7193E-03     75.4228E-03
            4700            4958     72.0075E-03     71.6882E-03
            4701            4940     73.6656E-03     74.2334E-03
            4701            4941     69.1436E-03     69.6039E-03
            4701            4958     72.0075E-03     71.6882E-03
            4701            4959     67.9358E-03     67.6323E-03
            4702            4941     69.1436E-03     69.6039E-03
            4702            4942     64.4632E-03     64.8770E-03
            4702            4959     67.9358E-03     67.6323E-03
            4702            4960     63.6631E-03     63.3845E-03
            4703            4942     64.4632E-03     64.8770E-03
            4703            4943     59.7455E-03     60.1234E-03
            4703            4960     63.6631E-03     63.3845E-03
            4703            4961     59.2835E-03     59.0454E-03
            4704            4943     59.7455E-03     60.1234E-03
            4704            4944     55.0195E-03     55.3858E-03
            4704            4961     59.2835E-03     59.0454E-03
            4704            4962     54.8735E-03     54.6630E-03
            4705            4944     55.0195E-03     55.3858E-03
            4705            4945     50.3305E-03     50.6873E-03
            4705            4962     54.8735E-03     54.6630E-03
            4705            4963     50.4598E-03     50.2799E-03
            4706            4945     50.3305E-03     50.6873E-03
            4706            4946     45.6856E-03     46.0419E-03
            4706            4963     50.4598E-03     50.2799E-03
            4706            4964     46.0804E-03     45.9217E-03
            4707            4946     45.6856E-03     46.0419E-03
            4707            4947     41.1029E-03     41.4665E-03
            4707            4964     46.0804E-03     45.9217E-03
            4707            4965     41.7523E-03     41.6151E-03
            4708            4947     41.1029E-03     41.4665E-03
            4708            4948     36.5957E-03     36.9819E-03
            4708            4965     41.7523E-03     41.6151E-03
            4708            4966     37.5044E-03     37.3944E-03
            4709            4948     36.5957E-03     36.9819E-03
            4709            4949     32.1783E-03     32.6284E-03
            4709            4966     37.5044E-03     37.3944E-03
            4709            4967     33.3683E-03     33.3016E-03
            4710            4949     32.1783E-03     32.6284E-03
            4710            4950     27.8922E-03     28.4716E-03
            4710            4967     33.3683E-03     33.3016E-03
            4710            4968     29.3764E-03     29.4222E-03
            4711            4950     27.8922E-03     28.4716E-03
            4711            4951     23.7752E-03     24.6186E-03
            4711            4968     29.3764E-03     29.4222E-03
            4711            4969     25.6001E-03     25.8733E-03
            4712            4951     23.7752E-03     24.6186E-03
            4712            4952     19.9945E-03     21.2834E-03
            4712            4969     25.6001E-03     25.8733E-03
            4712            4970     22.0643E-03     22.9188E-03
            4713            4952     19.9945E-03     21.2834E-03
            4713            4953     17.0817E-03     18.3346E-03
            4713            4970     22.0643E-03     22.9188E-03
            4713            4971     19.0902E-03     20.9096E-03
            4714            4953     17.0817E-03     18.3346E-03
            4714            4954     15.3320E-03     15.7015E-03
            4714            4971     19.0902E-03     20.9096E-03
            4714            4972     17.7316E-03     19.2327E-03
            4715             858     14.7346E-03     14.5155E-03
            4715             859     17.6285E-03     18.2885E-03
            4715            4954     15.3320E-03     15.7015E-03
            4715            4972     17.7316E-03     19.2327E-03
            4716             806     81.3794E-03     81.8684E-03
            4716             807     77.1030E-03     75.2080E-03
            4716            4955     80.8944E-03     80.9575E-03
            4716            4973     77.0061E-03     75.1688E-03
            4717            4955     80.8944E-03     80.9575E-03
            4717            4956     78.7806E-03     78.6174E-03
            4717            4973     77.0061E-03     75.1688E-03
            4717            4974     75.3737E-03     73.7078E-03
            4718            4956     78.7806E-03     78.6174E-03
            4718            4957     75.7193E-03     75.4228E-03
            4718            4974     75.3737E-03     73.7078E-03
            4718            4975     72.8398E-03     71.4049E-03
            4719            4957     75.7193E-03     75.4228E-03
            4719            4958     72.0075E-03     71.6882E-03
            4719            4975     72.8398E-03     71.4049E-03
            4719            4976     69.7351E-03     68.4964E-03
            4720            4958     72.0075E-03     71.6882E-03
            4720            4959     67.9358E-03     67.6323E-03
            4720            4976     69.7351E-03     68.4964E-03
            4720            4977     66.2352E-03     65.1636E-03
            4721            4959     67.9358E-03     67.6323E-03
            4721            4960     63.6631E-03     63.3845E-03
            4721            4977     66.2352E-03     65.1636E-03
            4721            4978     62.4857E-03     61.5557E-03
            4722            4960     63.6631E-03     63.3845E-03
            4722            4961     59.2835E-03     59.0454E-03
            4722            4978     62.4857E-03     61.5557E-03
            4722            4979     58.5799E-03     57.7508E-03
            4723            4961     59.2835E-03     59.0454E-03
            4723            4962     54.8735E-03     54.6630E-03
            4723            4979     58.5799E-03     57.7508E-03
            4723            4980     54.5769E-03     53.8370E-03
            4724            4962     54.8735E-03     54.6630E-03
            4724            4963     50.4598E-03     50.2799E-03
            4724            4980     54.5769E-03     53.8370E-03
            4724            4981     50.5351E-03     49.8574E-03
            4725            4963     50.4598E-03     50.2799E-03
            4725            4964     46.0804E-03     45.9217E-03
            4725            4981     50.5351E-03     49.8574E-03
            4725            4982     46.4847E-03     45.8634E-03
            4726            4964     46.0804E-03     45.9217E-03
            4726            4965     41.7523E-03     41.6151E-03
            4726            4982     46.4847E-03     45.8634E-03
            4726            4983     42.4725E-03     41.8925E-03
            4727            4965     41.7523E-03     41.6151E-03
            4727            4966     37.5044E-03     37.3944E-03
            4727            4983     42.4725E-03     41.8925E-03
            4727            4984     38.5295E-03     37.9882E-03
            4728            4966     37.5044E-03     37.3944E-03
            4728            4967     33.3683E-03     33.3016E-03
            4728            4984     38.5295E-03     37.9882E-03
            4728            4985     34.7146E-03     34.2039E-03
            4729            4967     33.3683E-03     33.3016E-03
            4729            4968     29.3764E-03     29.4222E-03
            4729            4985     34.7146E-03     34.2039E-03
            4729            4986     31.0718E-03     30.6117E-03
            4730            4968     29.3764E-03     29.4222E-03
            4730            4969     25.6001E-03     25.8733E-03
            4730            4986     31.0718E-03     30.6117E-03
            4730            4987     27.6915E-03     27.3334E-03
            4731            4969     25.6001E-03     25.8733E-03
            4731            4970     22.0643E-03     22.9188E-03
            4731            4987     27.6915E-03     27.3334E-03
            4731            4988     24.6030E-03     24.5525E-03
            4732            4970     22.0643E-03     22.9188E-03
            4732            4971     19.0902E-03     20.9096E-03
            4732            4988     24.6030E-03     24.5525E-03
            4732            4989     21.8159E-03     22.7891E-03
            4733            4971     19.0902E-03     20.9096E-03
            4733            4972     17.7316E-03     19.2327E-03
            4733            4989     21.8159E-03     22.7891E-03
            4733            4990     19.6754E-03     22.5179E-03
            4734             859     17.6285E-03     18.2885E-03
            4734             860     18.8361E-03     22.7720E-03
            4734            4972     17.7316E-03     19.2327E-03
            4734            4990     19.6754E-03     22.5179E-03
            4735             807     77.1030E-03     75.2080E-03
            4735             808     65.4225E-03     65.7706E-03
            4735            4973     77.0061E-03     75.1688E-03
            4735            4991     61.4275E-03     61.5880E-03
            4736            4973     77.0061E-03     75.1688E-03
            4736            4974     75.3737E-03     73.7078E-03
            4736            4991     61.4275E-03     61.5880E-03
            4736            4992     57.7703E-03     58.1250E-03
            4737            4974     75.3737E-03     73.7078E-03
            4737            4975     72.8398E-03     71.4049E-03
            4737            4992     57.7703E-03     58.1250E-03
            4737            4993     54.5541E-03     55.0407E-03
            4738            4975     72.8398E-03     71.4049E-03
            4738            4976     69.7351E-03     68.4964E-03
            4738            4993     54.5541E-03     55.0407E-03
            4738            4994     51.3992E-03     52.1020E-03
            4739            4976     69.7351E-03     68.4964E-03
            4739            4977     66.2352E-03     65.1636E-03
            4739            4994     51.3992E-03     52.1020E-03
            4739            4995     48.3609E-03     49.1938E-03
            4740            4977     66.2352E-03     65.1636E-03
            4740            4978     62.4857E-03     61.5557E-03
            4740            4995     48.3609E-03     49.1938E-03
            4740            4996     45.3100E-03     46.2776E-03
            4741            4978     62.4857E-03     61.5557E-03
            4741            4979     58.5799E-03     57.7508E-03
            4741            4996     45.3100E-03     46.2776E-03
            4741            4997     42.2778E-03     43.3264E-03
            4742            4979     58.5799E-03     57.7508E-03
            4742            4980     54.5769E-03     53.8370E-03
            4742            4997     42.2778E-03     43.3264E-03
            4742            4998     39.2253E-03     40.3477E-03
            4743            4980     54.5769E-03     53.8370E-03
            4743            4981     50.5351E-03     49.8574E-03
            4743            4998     39.2253E-03     40.3477E-03
            4743            4999     36.1749E-03     37.3398E-03
            4744            4981     50.5351E-03     49.8574E-03
            4744            4982     46.4847E-03     45.8634E-03
            4744            4999     36.1749E-03     37.3398E-03
            4744            5000     33.1247E-03     34.3260E-03
            4745            4982     46.4847E-03     45.8634E-03
            4745            4983     42.4725E-03     41.8925E-03
            4745            5000     33.1247E-03     34.3260E-03
            4745            5001     30.0990E-03     31.3144E-03
            4746            4983     42.4725E-03     41.8925E-03
            4746            4984     38.5295E-03     37.9882E-03
            4746            5001     30.0990E-03     31.3144E-03
            4746            5002     27.1163E-03     28.3332E-03
            4747            4984     38.5295E-03     37.9882E-03
            4747            4985     34.7146E-03     34.2039E-03
            4747            5002     27.1163E-03     28.3332E-03
            4747            5003     24.2121E-03     25.4077E-03
            4748            4985     34.7146E-03     34.2039E-03
            4748            4986     31.0718E-03     30.6117E-03
            4748            5003     24.2121E-03     25.4077E-03
            4748            5004     21.4287E-03     22.5704E-03
            4749            4986     31.0718E-03     30.6117E-03
            4749            4987     27.6915E-03     27.3334E-03
            4749            5004     21.4287E-03     22.5704E-03
            4749            5005     18.8199E-03     19.9036E-03
            4750            4987     27.6915E-03     27.3334E-03
            4750            4988     24.6030E-03     24.5525E-03
            4750            5005     18.8199E-03     19.9036E-03
            4750            5006     16.4616E-03     17.4490E-03
            4751            4988     24.6030E-03     24.5525E-03
            4751            4989     21.8159E-03     22.7891E-03
            4751            5006     16.4616E-03     17.4490E-03
            4751            5007     14.4267E-03     15.5531E-03
            4752            4989     21.8159E-03     22.7891E-03
            4752            4990     19.6754E-03     22.5179E-03
            4752            5007     14.4267E-03     15.5531E-03
            4752            5008     12.4034E-03     14.7067E-03
            4753             860     18.8361E-03     22.7720E-03
            4753             861     11.2991E-03     14.5611E-03
            4753            4990     19.6754E-03     22.5179E-03
            4753            5008     12.4034E-03     14.7067E-03
            4754             808     65.4225E-03     65.7706E-03
            4754             809     57.3148E-03     60.5990E-03
            4754            4991     61.4275E-03     61.5880E-03
            4754            5009     48.3537E-03     51.3618E-03
            4755            4991     61.4275E-03     61.5880E-03
            4755            4992     57.7703E-03     58.1250E-03
            4755            5009     48.3537E-03     51.3618E-03
            4755            5010     42.6149E-03     45.4845E-03
            4756            4992     57.7703E-03     58.1250E-03
            4756            4993     54.5541E-03     55.0407E-03
            4756            5010     42.6149E-03     45.4845E-03
            4756            5011     38.2082E-03     41.0663E-03
            4757            4993     54.5541E-03     55.0407E-03
            4757            4994     51.3992E-03     52.1020E-03
            4757            5011     38.2082E-03     41.0663E-03
            4757            5012     34.7790E-03     37.6502E-03
            4758            4994     51.3992E-03     52.1020E-03
            4758            4995     48.3609E-03     49.1938E-03
            4758            5012     34.7790E-03     37.6502E-03
            4758            5013     31.8371E-03     34.7428E-03
            4759            4995     48.3609E-03     49.1938E-03
            4759            4996     45.3100E-03     46.2776E-03
            4759            5013     31.8371E-03     34.7428E-03
            4759            5014     29.2392E-03     32.1748E-03
            4760            4996     45.3100E-03     46.2776E-03
            4760            4997     42.2778E-03     43.3264E-03
            4760            5014     29.2392E-03     32.1748E-03
            4760            5015     26.8113E-03     29.7673E-03
            4761            4997     42.2778E-03     43.3264E-03
            4761            4998     39.2253E-03     40.3477E-03
            4761            5015     26.8113E-03     29.7673E-03
            4761            5016     24.4962E-03     27.4644E-03
            4762            4998     39.2253E-03     40.3477E-03
            4762            4999     36.1749E-03     37.3398E-03
            4762            5016     24.4962E-03     27.4644E-03
            4762            5017     22.2343E-03     25.2000E-03
            4763            4999     36.1749E-03     37.3398E-03
            4763            5000     33.1247E-03     34.3260E-03
            4763            5017     22.2343E-03     25.2000E-03
            4763            5018     20.0089E-03     22.9615E-03
            4764            5000     33.1247E-03     34.3260E-03
            4764            5001     30.0990E-03     31.3144E-03
            4764            5018     20.0089E-03     22.9615E-03
            4764            5019     17.8067E-03     20.7268E-03
            4765            5001     30.0990E-03     31.3144E-03
            4765            5002     27.1163E-03     28.3332E-03
            4765            5019     17.8067E-03     20.7268E-03
            4765            5020     15.6307E-03     18.4989E-03
            4766            5002     27.1163E-03     28.3332E-03
            4766            5003     24.2121E-03     25.4077E-03
            4766            5020     15.6307E-03     18.4989E-03
            4766            5021     13.4919E-03     16.2741E-03
            4767            5003     24.2121E-03     25.4077E-03
            4767            5004     21.4287E-03     22.5704E-03
            4767            5021     13.4919E-03     16.2741E-03
            4767            5022     11.4072E-03     14.0676E-03
            4768            5004     21.4287E-03     22.5704E-03
            4768            5005     18.8199E-03     19.9036E-03
            4768            5022     11.4072E-03     14.0676E-03
            4768            5023     9.42010E-03     11.8962E-03
            4769            5005     18.8199E-03     19.9036E-03
            4769            5006     16.4616E-03     17.4490E-03
            4769            5023     9.42010E-03     11.8962E-03
            4769            5024     7.59021E-03     9.80598E-03
            4770            5006     16.4616E-03     17.4490E-03
            4770            5007     14.4267E-03     15.5531E-03
            4770            5024     7.59021E-03     9.80598E-03
            4770            5025     6.05797E-03     7.91421E-03
            4771            5007     14.4267E-03     15.5531E-03
            4771            5008     12.4034E-03     14.7067E-03
            4771            5025     6.05797E-03     7.91421E-03
            4771            5026     5.18007E-03     6.30610E-03
            4772             861     11.2991E-03     14.5611E-03
            4772             862     4.96511E-03     5.57510E-03
            4772            5008     12.4034E-03     14.7067E-03
            4772            5026     5.18007E-03     6.30610E-03
            4773             809     57.3148E-03     60.5990E-03
            4773             810     58.9797E-03     60.3698E-03
            4773            5009     48.3537E-03     51.3618E-03
            4773            5027     49.3880E-03     51.6046E-03
            4774            5009     48.3537E-03     51.3618E-03
            4774            5010     42.6149E-03     45.4845E-03
            4774            5027     49.3880E-03     51.6046E-03
            4774            5028     43.4643E-03     45.8549E-03
            4775            5010     42.6149E-03     45.4845E-03
            4775            5011     38.2082E-03     41.0663E-03
            4775            5028     43.4643E-03     45.8549E-03
            4775            5029     39.1213E-03     41.5512E-03
            4776            5011     38.2082E-03     41.0663E-03
            4776            5012     34.7790E-03     37.6502E-03
            4776            5029     39.1213E-03     41.5512E-03
            4776            5030     35.6687E-03     38.1397E-03
            4777            5012     34.7790E-03     37.6502E-03
            4777            5013     31.8371E-03     34.7428E-03
            4777            5030     35.6687E-03     38.1397E-03
            4777            5031     32.7858E-03     35.2524E-03
            4778            5013     31.8371E-03     34.7428E-03
            4778            5014     29.2392E-03     32.1748E-03
            4778            5031     32.7858E-03     35.2524E-03
            4778            5032     30.1872E-03     32.6562E-03
            4779            5014     29.2392E-03     32.1748E-03
            4779            5015     26.8113E-03     29.7673E-03
            4779            5032     30.1872E-03     32.6562E-03
            4779            5033     27.7769E-03     30.2347E-03
            4780            5015     26.8113E-03     29.7673E-03
            4780            5016     24.4962E-03     27.4644E-03
            4780            5033     27.7769E-03     30.2347E-03
            4780            5034     25.4540E-03     27.8990E-03
            4781            5016     24.4962E-03     27.4644E-03
            4781            5017     22.2343E-03     25.2000E-03
            4781            5034     25.4540E-03     27.8990E-03
            4781            5035     23.1914E-03     25.6162E-03
            4782            5017     22.2343E-03     25.2000E-03
            4782            5018     20.0089E-03     22.9615E-03
            4782            5035     23.1914E-03     25.6162E-03
            4782            5036     20.9612E-03     23.3564E-03
            4783            5018     20.0089E-03     22.9615E-03
            4783            5019     17.8067E-03     20.7268E-03
            4783            5036     20.9612E-03     23.3564E-03
            4783            5037     18.7638E-03     21.1162E-03
            4784            5019     17.8067E-03     20.7268E-03
            4784            5020     15.6307E-03     18.4989E-03
            4784            5037     18.7638E-03     21.1162E-03
            4784            5038     16.6028E-03     18.8891E-03
            4785            5020     15.6307E-03     18.4989E-03
            4785            5021     13.4919E-03     16.2741E-03
            4785            5038     16.6028E-03     18.8891E-03
            4785            5039     14.4961E-03     16.6854E-03
            4786            5021     13.4919E-03     16.2741E-03
            4786            5022     11.4072E-03     14.0676E-03
            4786            5039     14.4961E-03     16.6854E-03
            4786            5040     12.4727E-03     14.5131E-03
            4787            5022     11.4072E-03     14.0676E-03
            4787            5023     9.42010E-03     11.8962E-03
            4787            5040     12.4727E-03     14.5131E-03
            4787            5041     10.5829E-03     12.3992E-03
            4788            5023     9.42010E-03     11.8962E-03
            4788            5024     7.59021E-03     9.80598E-03
            4788            5041     10.5829E-03     12.3992E-03
            4788            5042     8.90405E-03     10.3985E-03
            4789            5024     7.59021E-03     9.80598E-03
            4789            5025     6.05797E-03     7.91421E-03
            4789            5042     8.90405E-03     10.3985E-03
            4789            5043     7.62254E-03     8.55684E-03
            4790            5025     6.05797E-03     7.91421E-03
            4790            5026     5.18007E-03     6.30610E-03
            4790            5043     7.62254E-03     8.55684E-03
            4790            5044     6.99444E-03     6.97880E-03
            4791             862     4.96511E-03     5.57510E-03
            4791             863     6.87296E-03     6.27960E-03
            4791            5026     5.18007E-03     6.30610E-03
            4791            5044     6.99444E-03     6.97880E-03
            4792             810     58.9797E-03     60.3698E-03
            4792             811     56.9099E-03     57.9319E-03
            4792            5027     49.3880E-03     51.6046E-03
            4792            5045     49.6567E-03     51.0946E-03
            4793            5027     49.3880E-03     51.6046E-03
            4793            5028     43.4643E-03     45.8549E-03
            4793            5045     49.6567E-03     51.0946E-03
            4793            5046     43.9664E-03     45.8521E-03
            4794            5028     43.4643E-03     45.8549E-03
            4794            5029     39.1213E-03     41.5512E-03
            4794            5046     43.9664E-03     45.8521E-03
            4794            5047     39.9259E-03     41.9298E-03
            4795            5029     39.1213E-03     41.5512E-03
            4795            5030     35.6687E-03     38.1397E-03
            4795            5047     39.9259E-03     41.9298E-03
            4795            5048     36.6288E-03     38.6588E-03
            4796            5030     35.6687E-03     38.1397E-03
            4796            5031     32.7858E-03     35.2524E-03
            4796            5048     36.6288E-03     38.6588E-03
            4796            5049     33.7937E-03     35.8253E-03
            4797            5031     32.7858E-03     35.2524E-03
            4797            5032     30.1872E-03     32.6562E-03
            4797            5049     33.7937E-03     35.8253E-03
            4797            5050     31.2264E-03     33.2250E-03
            4798            5032     30.1872E-03     32.6562E-03
            4798            5033     27.7769E-03     30.2347E-03
            4798            5050     31.2264E-03     33.2250E-03
            4798            5051     28.7972E-03     30.7695E-03
            4799            5033     27.7769E-03     30.2347E-03
            4799            5034     25.4540E-03     27.8990E-03
            4799            5051     28.7972E-03     30.7695E-03
            4799            5052     26.4599E-03     28.3980E-03
            4800            5034     25.4540E-03     27.8990E-03
            4800            5035     23.1914E-03     25.6162E-03
            4800            5052     26.4599E-03     28.3980E-03
            4800            5053     24.1725E-03     26.0790E-03
            4801            5035     23.1914E-03     25.6162E-03
            4801            5036     20.9612E-03     23.3564E-03
            4801            5053     24.1725E-03     26.0790E-03
            4801            5054     21.9298E-03     23.7980E-03
            4802            5036     20.9612E-03     23.3564E-03
            4802            5037     18.7638E-03     21.1162E-03
            4802            5054     21.9298E-03     23.7980E-03
            4802            5055     19.7267E-03     21.5479E-03
            4803            5037     18.7638E-03     21.1162E-03
            4803            5038     16.6028E-03     18.8891E-03
            4803            5055     19.7267E-03     21.5479E-03
            4803            5056     17.5779E-03     19.3320E-03
            4804            5038     16.6028E-03     18.8891E-03
            4804            5039     14.4961E-03     16.6854E-03
            4804            5056     17.5779E-03     19.3320E-03
            4804            5057     15.5012E-03     17.1548E-03
            4805            5039     14.4961E-03     16.6854E-03
            4805            5040     12.4727E-03     14.5131E-03
            4805            5057     15.5012E-03     17.1548E-03
            4805            5058     13.5382E-03     15.0328E-03
            4806            5040     12.4727E-03     14.5131E-03
            4806            5041     10.5829E-03     12.3992E-03
            4806            5058     13.5382E-03     15.0328E-03
            4806            5059     11.7394E-03     12.9870E-03
            4807            5041     10.5829E-03     12.3992E-03
            4807            5042     8.90405E-03     10.3985E-03
            4807            5059     11.7394E-03     12.9870E-03
            4807            5060     10.2106E-03     11.0618E-03
            4808            5042     8.90405E-03     10.3985E-03
            4808            5043     7.62254E-03     8.55684E-03
            4808            5060     10.2106E-03     11.0618E-03
            4808            5061     9.09885E-03     9.30351E-03
            4809            5043     7.62254E-03     8.55684E-03
            4809            5044     6.99444E-03     6.97880E-03
            4809            5061     9.09885E-03     9.30351E-03
            4809            5062     8.43489E-03     7.95527E-03
            4810             863     6.87296E-03     6.27960E-03
            4810             864     8.20632E-03     7.43962E-03
            4810            5044     6.99444E-03     6.97880E-03
            4810            5062     8.43489E-03     7.95527E-03
            4811             811     56.9099E-03     57.9319E-03
            4811             812     53.0196E-03     54.1501E-03
            4811            5045     49.6567E-03     51.0946E-03
            4811            5063     47.9952E-03     49.2640E-03
            4812            5045     49.6567E-03     51.0946E-03
            4812            5046     43.9664E-03     45.8521E-03
            4812            5063     47.9952E-03     49.2640E-03
            4812            5064     43.8097E-03     45.2557E-03
            4813            5046     43.9664E-03     45.8521E-03
            4813            5047     39.9259E-03     41.9298E-03
            4813            5064     43.8097E-03     45.2557E-03
            4813            5065     40.2927E-03     41.9002E-03
            4814            5047     39.9259E-03     41.9298E-03
            4814            5048     36.6288E-03     38.6588E-03
            4814            5065     40.2927E-03     41.9002E-03
            4814            5066     37.3805E-03     38.9867E-03
            4815            5048     36.6288E-03     38.6588E-03
            4815            5049     33.7937E-03     35.8253E-03
            4815            5066     37.3805E-03     38.9867E-03
            4815            5067     34.7043E-03     36.2793E-03
            4816            5049     33.7937E-03     35.8253E-03
            4816            5050     31.2264E-03     33.2250E-03
            4816            5067     34.7043E-03     36.2793E-03
            4816            5068     32.1958E-03     33.7272E-03
            4817            5050     31.2264E-03     33.2250E-03
            4817            5051     28.7972E-03     30.7695E-03
            4817            5068     32.1958E-03     33.7272E-03
            4817            5069     29.7766E-03     31.2593E-03
            4818            5051     28.7972E-03     30.7695E-03
            4818            5052     26.4599E-03     28.3980E-03
            4818            5069     29.7766E-03     31.2593E-03
            4818            5070     27.4210E-03     28.8638E-03
            4819            5052     26.4599E-03     28.3980E-03
            4819            5053     24.1725E-03     26.0790E-03
            4819            5070     27.4210E-03     28.8638E-03
            4819            5071     25.1165E-03     26.5193E-03
            4820            5053     24.1725E-03     26.0790E-03
            4820            5054     21.9298E-03     23.7980E-03
            4820            5071     25.1165E-03     26.5193E-03
            4820            5072     22.8587E-03     24.2248E-03
            4821            5054     21.9298E-03     23.7980E-03
            4821            5055     19.7267E-03     21.5479E-03
            4821            5072     22.8587E-03     24.2248E-03
            4821            5073     20.6554E-03     21.9781E-03
            4822            5055     19.7267E-03     21.5479E-03
            4822            5056     17.5779E-03     19.3320E-03
            4822            5073     20.6554E-03     21.9781E-03
            4822            5074     18.5175E-03     19.7860E-03
            4823            5056     17.5779E-03     19.3320E-03
            4823            5057     15.5012E-03     17.1548E-03
            4823            5074     18.5175E-03     19.7860E-03
            4823            5075     16.4758E-03     17.6563E-03
            4824            5057     15.5012E-03     17.1548E-03
            4824            5058     13.5382E-03     15.0328E-03
            4824            5075     16.4758E-03     17.6563E-03
            4824            5076     14.5631E-03     15.6010E-03
            4825            5058     13.5382E-03     15.0328E-03
            4825            5059     11.7394E-03     12.9870E-03
            4825            5076     14.5631E-03     15.6010E-03
            4825            5077     12.8523E-03     13.6496E-03
            4826            5059     11.7394E-03     12.9870E-03
            4826            5060     10.2106E-03     11.0618E-03
            4826            5077     12.8523E-03     13.6496E-03
            4826            5078     11.4273E-03     11.8203E-03
            4827            5060     10.2106E-03     11.0618E-03
            4827            5061     9.09885E-03     9.30351E-03
            4827            5078     11.4273E-03     11.8203E-03
            4827            5079     10.3512E-03     10.2569E-03
            4828            5061     9.09885E-03     9.30351E-03
            4828            5062     8.43489E-03     7.95527E-03
            4828            5079     10.3512E-03     10.2569E-03
            4828            5080     9.74297E-03     9.10593E-03
            4829             864     8.20632E-03     7.43962E-03
            4829             865     9.57655E-03     8.63598E-03
            4829            5062     8.43489E-03     7.95527E-03
            4829            5080     9.74297E-03     9.10593E-03
            4830             812     53.0196E-03     54.1501E-03
            4830             813     48.9645E-03     49.7655E-03
            4830            5063     47.9952E-03     49.2640E-03
            4830            5081     45.4265E-03     46.5644E-03
            4831            5063     47.9952E-03     49.2640E-03
            4831            5064     43.8097E-03     45.2557E-03
            4831            5081     45.4265E-03     46.5644E-03
            4831            5082     42.7004E-03     43.9274E-03
            4832            5064     43.8097E-03     45.2557E-03
            4832            5065     40.2927E-03     41.9002E-03
            4832            5082     42.7004E-03     43.9274E-03
            4832            5083     40.2094E-03     41.4174E-03
            4833            5065     40.2927E-03     41.9002E-03
            4833            5066     37.3805E-03     38.9867E-03
            4833            5083     40.2094E-03     41.4174E-03
            4833            5084     37.7576E-03     38.9423E-03
            4834            5066     37.3805E-03     38.9867E-03
            4834            5067     34.7043E-03     36.2793E-03
            4834            5084     37.7576E-03     38.9423E-03
            4834            5085     35.3730E-03     36.4786E-03
            4835            5067     34.7043E-03     36.2793E-03
            4835            5068     32.1958E-03     33.7272E-03
            4835            5085     35.3730E-03     36.4786E-03
            4835            5086     32.9685E-03     34.0140E-03
            4836            5068     32.1958E-03     33.7272E-03
            4836            5069     29.7766E-03     31.2593E-03
            4836            5086     32.9685E-03     34.0140E-03
            4836            5087     30.5983E-03     31.5888E-03
            4837            5069     29.7766E-03     31.2593E-03
            4837            5070     27.4210E-03     28.8638E-03
            4837            5087     30.5983E-03     31.5888E-03
            4837            5088     28.2518E-03     29.1974E-03
            4838            5070     27.4210E-03     28.8638E-03
            4838            5071     25.1165E-03     26.5193E-03
            4838            5088     28.2518E-03     29.1974E-03
            4838            5089     25.9501E-03     26.8603E-03
            4839            5071     25.1165E-03     26.5193E-03
            4839            5072     22.8587E-03     24.2248E-03
            4839            5089     25.9501E-03     26.8603E-03
            4839            5090     23.6975E-03     24.5765E-03
            4840            5072     22.8587E-03     24.2248E-03
            4840            5073     20.6554E-03     21.9781E-03
            4840            5090     23.6975E-03     24.5765E-03
            4840            5091     21.5077E-03     22.3592E-03
            4841            5073     20.6554E-03     21.9781E-03
            4841            5074     18.5175E-03     19.7860E-03
            4841            5091     21.5077E-03     22.3592E-03
            4841            5092     19.3973E-03     20.2148E-03
            4842            5074     18.5175E-03     19.7860E-03
            4842            5075     16.4758E-03     17.6563E-03
            4842            5092     19.3973E-03     20.2148E-03
            4842            5093     17.3898E-03     18.1603E-03
            4843            5075     16.4758E-03     17.6563E-03
            4843            5076     14.5631E-03     15.6010E-03
            4843            5093     17.3898E-03     18.1603E-03
            4843            5094     15.5365E-03     16.2072E-03
            4844            5076     14.5631E-03     15.6010E-03
            4844            5077     12.8523E-03     13.6496E-03
            4844            5094     15.5365E-03     16.2072E-03
            4844            5095     13.8902E-03     14.3676E-03
            4845            5077     12.8523E-03     13.6496E-03
            4845            5078     11.4273E-03     11.8203E-03
            4845            5095     13.8902E-03     14.3676E-03
            4845            5096     12.5293E-03     12.7120E-03
            4846            5078     11.4273E-03     11.8203E-03
            4846            5079     10.3512E-03     10.2569E-03
            4846            5096     12.5293E-03     12.7120E-03
            4846            5097     11.5464E-03     11.2805E-03
            4847            5079     10.3512E-03     10.2569E-03
            4847            5080     9.74297E-03     9.10593E-03
            4847            5097     11.5464E-03     11.2805E-03
            4847            5098     10.9691E-03     10.2539E-03
            4848             865     9.57655E-03     8.63598E-03
            4848             866     10.7801E-03     9.88972E-03
            4848            5080     9.74297E-03     9.10593E-03
            4848            5098     10.9691E-03     10.2539E-03
            4849             813     48.9645E-03     49.7655E-03
            4849             814     44.4823E-03     45.2507E-03
            4849            5081     45.4265E-03     46.5644E-03
            4849            5099     42.5764E-03     43.4766E-03
            4850            5081     45.4265E-03     46.5644E-03
            4850            5082     42.7004E-03     43.9274E-03
            4850            5099     42.5764E-03     43.4766E-03
            4850            5100     41.1353E-03     42.0808E-03
            4851            5082     42.7004E-03     43.9274E-03
            4851            5083     40.2094E-03     41.4174E-03
            4851            5100     41.1353E-03     42.0808E-03
            4851            5101     39.6164E-03     40.4577E-03
            4852            5083     40.2094E-03     41.4174E-03
            4852            5084     37.7576E-03     38.9423E-03
            4852            5101     39.6164E-03     40.4577E-03
            4852            5102     37.7893E-03     38.4848E-03
            4853            5084     37.7576E-03     38.9423E-03
            4853            5085     35.3730E-03     36.4786E-03
            4853            5102     37.7893E-03     38.4848E-03
            4853            5103     35.6759E-03     36.2905E-03
            4854            5085     35.3730E-03     36.4786E-03
            4854            5086     32.9685E-03     34.0140E-03
            4854            5103     35.6759E-03     36.2905E-03
            4854            5104     33.4592E-03     33.9920E-03
            4855            5086     32.9685E-03     34.0140E-03
            4855            5087     30.5983E-03     31.5888E-03
            4855            5104     33.4592E-03     33.9920E-03
            4855            5105     31.1653E-03     31.6495E-03
            4856            5087     30.5983E-03     31.5888E-03
            4856            5088     28.2518E-03     29.1974E-03
            4856            5105     31.1653E-03     31.6495E-03
            4856            5106     28.8795E-03     29.3249E-03
            4857            5088     28.2518E-03     29.1974E-03
            4857            5089     25.9501E-03     26.8603E-03
            4857            5106     28.8795E-03     29.3249E-03
            4857            5107     26.6154E-03     27.0355E-03
            4858            5089     25.9501E-03     26.8603E-03
            4858            5090     23.6975E-03     24.5765E-03
            4858            5107     26.6154E-03     27.0355E-03
            4858            5108     24.4051E-03     24.8083E-03
            4859            5090     23.6975E-03     24.5765E-03
            4859            5091     21.5077E-03     22.3592E-03
            4859            5108     24.4051E-03     24.8083E-03
            4859            5109     22.2591E-03     22.6542E-03
            4860            5091     21.5077E-03     22.3592E-03
            4860            5092     19.3973E-03     20.2148E-03
            4860            5109     22.2591E-03     22.6542E-03
            4860            5110     20.1993E-03     20.5939E-03
            4861            5092     19.3973E-03     20.2148E-03
            4861            5093     17.3898E-03     18.1603E-03
            4861            5110     20.1993E-03     20.5939E-03
            4861            5111     18.2482E-03     18.6435E-03
            4862            5093     17.3898E-03     18.1603E-03
            4862            5094     15.5365E-03     16.2072E-03
            4862            5111     18.2482E-03     18.6435E-03
            4862            5112     16.4449E-03     16.8311E-03
            4863            5094     15.5365E-03     16.2072E-03
            4863            5095     13.8902E-03     14.3676E-03
            4863            5112     16.4449E-03     16.8311E-03
            4863            5113     14.8652E-03     15.1638E-03
            4864            5095     13.8902E-03     14.3676E-03
            4864            5096     12.5293E-03     12.7120E-03
            4864            5113     14.8652E-03     15.1638E-03
            4864            5114     13.5731E-03     13.6522E-03
            4865            5096     12.5293E-03     12.7120E-03
            4865            5097     11.5464E-03     11.2805E-03
            4865            5114     13.5731E-03     13.6522E-03
            4865            5115     12.6530E-03     12.4063E-03
            4866            5097     11.5464E-03     11.2805E-03
            4866            5098     10.9691E-03     10.2539E-03
            4866            5115     12.6530E-03     12.4063E-03
            4866            5116     12.1629E-03     11.4474E-03
            4867             866     10.7801E-03     9.88972E-03
            4867             867     12.0243E-03     11.0252E-03
            4867            5098     10.9691E-03     10.2539E-03
            4867            5116     12.1629E-03     11.4474E-03
            4868             814     44.4823E-03     45.2507E-03
            4868             815     39.9490E-03     40.4785E-03
            4868            5099     42.5764E-03     43.4766E-03
            4868            5117     39.4757E-03     40.2030E-03
            4869            5099     42.5764E-03     43.4766E-03
            4869            5100     41.1353E-03     42.0808E-03
            4869            5117     39.4757E-03     40.2030E-03
            4869            5118     39.4267E-03     39.9654E-03
            4870            5100     41.1353E-03     42.0808E-03
            4870            5101     39.6164E-03     40.4577E-03
            4870            5118     39.4267E-03     39.9654E-03
            4870            5119     38.7481E-03     39.0600E-03
            4871            5101     39.6164E-03     40.4577E-03
            4871            5102     37.7893E-03     38.4848E-03
            4871            5119     38.7481E-03     39.0600E-03
            4871            5120     37.3844E-03     37.5514E-03
            4872            5102     37.7893E-03     38.4848E-03
            4872            5103     35.6759E-03     36.2905E-03
            4872            5120     37.3844E-03     37.5514E-03
            4872            5121     35.6141E-03     35.6662E-03
            4873            5103     35.6759E-03     36.2905E-03
            4873            5104     33.4592E-03     33.9920E-03
            4873            5121     35.6141E-03     35.6662E-03
            4873            5122     33.5726E-03     33.5717E-03
            4874            5104     33.4592E-03     33.9920E-03
            4874            5105     31.1653E-03     31.6495E-03
            4874            5122     33.5726E-03     33.5717E-03
            4874            5123     31.4343E-03     31.3927E-03
            4875            5105     31.1653E-03     31.6495E-03
            4875            5106     28.8795E-03     29.3249E-03
            4875            5123     31.4343E-03     31.3927E-03
            4875            5124     29.2492E-03     29.1906E-03
            4876            5106     28.8795E-03     29.3249E-03
            4876            5107     26.6154E-03     27.0355E-03
            4876            5124     29.2492E-03     29.1906E-03
            4876            5125     27.0853E-03     27.0173E-03
            4877            5107     26.6154E-03     27.0355E-03
            4877            5108     24.4051E-03     24.8083E-03
            4877            5125     27.0853E-03     27.0173E-03
            4877            5126     24.9608E-03     24.8964E-03
            4878            5108     24.4051E-03     24.8083E-03
            4878            5109     22.2591E-03     22.6542E-03
            4878            5126     24.9608E-03     24.8964E-03
            4878            5127     22.9053E-03     22.8545E-03
            4879            5109     22.2591E-03     22.6542E-03
            4879            5110     20.1993E-03     20.5939E-03
            4879            5127     22.9053E-03     22.8545E-03
            4879            5128     20.9300E-03     20.9132E-03
            4880            5110     20.1993E-03     20.5939E-03
            4880            5111     18.2482E-03     18.6435E-03
            4880            5128     20.9300E-03     20.9132E-03
            4880            5129     19.0638E-03     19.1019E-03
            4881            5111     18.2482E-03     18.6435E-03
            4881            5112     16.4449E-03     16.8311E-03
            4881            5129     19.0638E-03     19.1019E-03
            4881            5130     17.3283E-03     17.4516E-03
            4882            5112     16.4449E-03     16.8311E-03
            4882            5113     14.8652E-03     15.1638E-03
            4882            5130     17.3283E-03     17.4516E-03
            4882            5131     15.7874E-03     16.0082E-03
            4883            5113     14.8652E-03     15.1638E-03
            4883            5114     13.5731E-03     13.6522E-03
            4883            5131     15.7874E-03     16.0082E-03
            4883            5132     14.5734E-03     14.7166E-03
            4884            5114     13.5731E-03     13.6522E-03
            4884            5115     12.6530E-03     12.4063E-03
            4884            5132     14.5734E-03     14.7166E-03
            4884            5133     13.7174E-03     13.5600E-03
            4885            5115     12.6530E-03     12.4063E-03
            4885            5116     12.1629E-03     11.4474E-03
            4885            5133     13.7174E-03     13.5600E-03
            4885            5134     13.2539E-03     12.7865E-03
            4886             867     12.0243E-03     11.0252E-03
            4886             868     13.1366E-03     12.5401E-03
            4886            5116     12.1629E-03     11.4474E-03
            4886            5134     13.2539E-03     12.7865E-03
            4887             815     39.9490E-03     40.4785E-03
            4887             816     35.1441E-03     35.5738E-03
            4887            5117     39.4757E-03     40.2030E-03
            4887            5135     36.6403E-03     36.8732E-03
            4888            5117     39.4757E-03     40.2030E-03
            4888            5118     39.4267E-03     39.9654E-03
            4888            5135     36.6403E-03     36.8732E-03
            4888            5136     37.7145E-03     37.5836E-03
            4889            5118     39.4267E-03     39.9654E-03
            4889            5119     38.7481E-03     39.0600E-03
            4889            5136     37.7145E-03     37.5836E-03
            4889            5137     37.5569E-03     37.1990E-03
            4890            5119     38.7481E-03     39.0600E-03
            4890            5120     37.3844E-03     37.5514E-03
            4890            5137     37.5569E-03     37.1990E-03
            4890            5138     36.5975E-03     36.1078E-03
            4891            5120     37.3844E-03     37.5514E-03
            4891            5121     35.6141E-03     35.6662E-03
            4891            5138     36.5975E-03     36.1078E-03
            4891            5139     35.0988E-03     34.5537E-03
            4892            5121     35.6141E-03     35.6662E-03
            4892            5122     33.5726E-03     33.5717E-03
            4892            5139     35.0988E-03     34.5537E-03
            4892            5140     33.3143E-03     32.7406E-03
            4893            5122     33.5726E-03     33.5717E-03
            4893            5123     31.4343E-03     31.3927E-03
            4893            5140     33.3143E-03     32.7406E-03
            4893            5141     31.3671E-03     30.7953E-03
            4894            5123     31.4343E-03     31.3927E-03
            4894            5124     29.2492E-03     29.1906E-03
            4894            5141     31.3671E-03     30.7953E-03
            4894            5142     29.3670E-03     28.8020E-03
            4895            5124     29.2492E-03     29.1906E-03
            4895            5125     27.0853E-03     27.0173E-03
            4895            5142     29.3670E-03     28.8020E-03
            4895            5143     27.3568E-03     26.8114E-03
            4896            5125     27.0853E-03     27.0173E-03
            4896            5126     24.9608E-03     24.8964E-03
            4896            5143     27.3568E-03     26.8114E-03
            4896            5144     25.3822E-03     24.8612E-03
            4897            5126     24.9608E-03     24.8964E-03
            4897            5127     22.9053E-03     22.8545E-03
            4897            5144     25.3822E-03     24.8612E-03
            4897            5145     23.4608E-03     22.9801E-03
            4898            5127     22.9053E-03     22.8545E-03
            4898            5128     20.9300E-03     20.9132E-03
            4898            5145     23.4608E-03     22.9801E-03
            4898            5146     21.6194E-03     21.1961E-03
            4899            5128     20.9300E-03     20.9132E-03
            4899            5129     19.0638E-03     19.1019E-03
            4899            5146     21.6194E-03     21.1961E-03
            4899            5147     19.8670E-03     19.5468E-03
            4900            5129     19.0638E-03     19.1019E-03
            4900            5130     17.3283E-03     17.4516E-03
            4900            5147     19.8670E-03     19.5468E-03
            4900            5148     18.2396E-03     18.0726E-03
            4901            5130     17.3283E-03     17.4516E-03
            4901            5131     15.7874E-03     16.0082E-03
            4901            5148     18.2396E-03     18.0726E-03
            4901            5149     16.7440E-03     16.8329E-03
            4902            5131     15.7874E-03     16.0082E-03
            4902            5132     14.5734E-03     14.7166E-03
            4902            5149     16.7440E-03     16.8329E-03
            4902            5150     15.4899E-03     15.8888E-03
            4903            5132     14.5734E-03     14.7166E-03
            4903            5133     13.7174E-03     13.5600E-03
            4903            5150     15.4899E-03     15.8888E-03
            4903            5151     14.7477E-03     14.9917E-03
            4904            5133     13.7174E-03     13.5600E-03
            4904            5134     13.2539E-03     12.7865E-03
            4904            5151     14.7477E-03     14.9917E-03
            4904            5152     14.3937E-03     14.0434E-03
            4905             868     13.1366E-03     12.5401E-03
            4905             869     14.2514E-03     13.5977E-03
            4905            5134     13.2539E-03     12.7865E-03
            4905            5152     14.3937E-03     14.0434E-03
            4906             816     35.1441E-03     35.5738E-03
            4906             817     30.9466E-03     30.6839E-03
            4906            5135     36.6403E-03     36.8732E-03
            4906            5153     34.3516E-03     33.5281E-03
            4907            5135     36.6403E-03     36.8732E-03
            4907            5136     37.7145E-03     37.5836E-03
            4907            5153     34.3516E-03     33.5281E-03
            4907            5154     35.8096E-03     34.7035E-03
            4908            5136     37.7145E-03     37.5836E-03
            4908            5137     37.5569E-03     37.1990E-03
            4908            5154     35.8096E-03     34.7035E-03
            4908            5155     35.9870E-03     34.7948E-03
            4909            5137     37.5569E-03     37.1990E-03
            4909            5138     36.5975E-03     36.1078E-03
            4909            5155     35.9870E-03     34.7948E-03
            4909            5156     35.3398E-03     34.1264E-03
            4910            5138     36.5975E-03     36.1078E-03
            4910            5139     35.0988E-03     34.5537E-03
            4910            5156     35.3398E-03     34.1264E-03
            4910            5157     34.1650E-03     32.9768E-03
            4911            5139     35.0988E-03     34.5537E-03
            4911            5140     33.3143E-03     32.7406E-03
            4911            5157     34.1650E-03     32.9768E-03
            4911            5158     32.6819E-03     31.5356E-03
            4912            5140     33.3143E-03     32.7406E-03
            4912            5141     31.3671E-03     30.7953E-03
            4912            5158     32.6819E-03     31.5356E-03
            4912            5159     31.0216E-03     29.9193E-03
            4913            5141     31.3671E-03     30.7953E-03
            4913            5142     29.3670E-03     28.8020E-03
            4913            5159     31.0216E-03     29.9193E-03
            4913            5160     29.2698E-03     28.2181E-03
            4914            5142     29.3670E-03     28.8020E-03
            4914            5143     27.3568E-03     26.8114E-03
            4914            5160     29.2698E-03     28.2181E-03
            4914            5161     27.4885E-03     26.4852E-03
            4915            5143     27.3568E-03     26.8114E-03
            4915            5144     25.3822E-03     24.8612E-03
            4915            5161     27.4885E-03     26.4852E-03
            4915            5162     25.7139E-03     24.7657E-03
            4916            5144     25.3822E-03     24.8612E-03
            4916            5145     23.4608E-03     22.9801E-03
            4916            5162     25.7139E-03     24.7657E-03
            4916            5163     23.9786E-03     23.0918E-03
            4917            5145     23.4608E-03     22.9801E-03
            4917            5146     21.6194E-03     21.1961E-03
            4917            5163     23.9786E-03     23.0918E-03
            4917            5164     22.3035E-03     21.4992E-03
            4918            5146     21.6194E-03     21.1961E-03
            4918            5147     19.8670E-03     19.5468E-03
            4918            5164     22.3035E-03     21.4992E-03
            4918            5165     20.7126E-03     20.0220E-03
            4919            5147     19.8670E-03     19.5468E-03
            4919            5148     18.2396E-03     18.0726E-03
            4919            5165     20.7126E-03     20.0220E-03
            4919            5166     19.2150E-03     18.7176E-03
            4920            5148     18.2396E-03     18.0726E-03
            4920            5149     16.7440E-03     16.8329E-03
            4920            5166     19.2150E-03     18.7176E-03
            4920            5167     17.8401E-03     17.6358E-03
            4921            5149     16.7440E-03     16.8329E-03
            4921            5150     15.4899E-03     15.8888E-03
            4921            5167     17.8401E-03     17.6358E-03
            4921            5168     16.5480E-03     16.9170E-03
            4922            5150     15.4899E-03     15.8888E-03
            4922            5151     14.7477E-03     14.9917E-03
            4922            5168     16.5480E-03     16.9170E-03
            4922            5169     15.5382E-03     16.6103E-03
            4923            5151     14.7477E-03     14.9917E-03
            4923            5152     14.3937E-03     14.0434E-03
            4923            5169     15.5382E-03     16.6103E-03
            4923            5170     15.3995E-03     16.1038E-03
            4924             869     14.2514E-03     13.5977E-03
            4924             870     15.6272E-03     15.6693E-03
            4924            5152     14.3937E-03     14.0434E-03
            4924            5170     15.3995E-03     16.1038E-03
            4925             817     30.9466E-03     30.6839E-03
            4925             818     28.5524E-03     26.3253E-03
            4925            5153     34.3516E-03     33.5281E-03
            4925            5171     32.0437E-03     29.6450E-03
            4926            5153     34.3516E-03     33.5281E-03
            4926            5154     35.8096E-03     34.7035E-03
            4926            5171     32.0437E-03     29.6450E-03
            4926            5172     33.4691E-03     31.2207E-03
            4927            5154     35.8096E-03     34.7035E-03
            4927            5155     35.9870E-03     34.7948E-03
            4927            5172     33.4691E-03     31.2207E-03
            4927            5173     33.9392E-03     31.8362E-03
            4928            5155     35.9870E-03     34.7948E-03
            4928            5156     35.3398E-03     34.1264E-03
            4928            5173     33.9392E-03     31.8362E-03
            4928            5174     33.6405E-03     31.6970E-03
            4929            5156     35.3398E-03     34.1264E-03
            4929            5157     34.1650E-03     32.9768E-03
            4929            5174     33.6405E-03     31.6970E-03
            4929            5175     32.8910E-03     31.0808E-03
            4930            5157     34.1650E-03     32.9768E-03
            4930            5158     32.6819E-03     31.5356E-03
            4930            5175     32.8910E-03     31.0808E-03
            4930            5176     31.8048E-03     30.1083E-03
            4931            5158     32.6819E-03     31.5356E-03
            4931            5159     31.0216E-03     29.9193E-03
            4931            5176     31.8048E-03     30.1083E-03
            4931            5177     30.5116E-03     28.9191E-03
            4932            5159     31.0216E-03     29.9193E-03
            4932            5160     29.2698E-03     28.2181E-03
            4932            5177     30.5116E-03     28.9191E-03
            4932            5178     29.0828E-03     27.5797E-03
            4933            5160     29.2698E-03     28.2181E-03
            4933            5161     27.4885E-03     26.4852E-03
            4933            5178     29.0828E-03     27.5797E-03
            4933            5179     27.5805E-03     26.1652E-03
            4934            5161     27.4885E-03     26.4852E-03
            4934            5162     25.7139E-03     24.7657E-03
            4934            5179     27.5805E-03     26.1652E-03
            4934            5180     26.0487E-03     24.7188E-03
            4935            5162     25.7139E-03     24.7657E-03
            4935            5163     23.9786E-03     23.0918E-03
            4935            5180     26.0487E-03     24.7188E-03
            4935            5181     24.5264E-03     23.2851E-03
            4936            5163     23.9786E-03     23.0918E-03
            4936            5164     22.3035E-03     21.4992E-03
            4936            5181     24.5264E-03     23.2851E-03
            4936            5182     23.0411E-03     21.9014E-03
            4937            5164     22.3035E-03     21.4992E-03
            4937            5165     20.7126E-03     20.0220E-03
            4937            5182     23.0411E-03     21.9014E-03
            4937            5183     21.6287E-03     20.6041E-03
            4938            5165     20.7126E-03     20.0220E-03
            4938            5166     19.2150E-03     18.7176E-03
            4938            5183     21.6287E-03     20.6041E-03
            4938            5184     20.3000E-03     19.4397E-03
            4939            5166     19.2150E-03     18.7176E-03
            4939            5167     17.8401E-03     17.6358E-03
            4939            5184     20.3000E-03     19.4397E-03
            4939            5185     19.0884E-03     18.4659E-03
            4940            5167     17.8401E-03     17.6358E-03
            4940            5168     16.5480E-03     16.9170E-03
            4940            5185     19.0884E-03     18.4659E-03
            4940            5186     17.9567E-03     17.7548E-03
            4941            5168     16.5480E-03     16.9170E-03
            4941            5169     15.5382E-03     16.6103E-03
            4941            5186     17.9567E-03     17.7548E-03
            4941            5187     16.8264E-03     17.6024E-03
            4942            5169     15.5382E-03     16.6103E-03
            4942            5170     15.3995E-03     16.1038E-03
            4942            5187     16.8264E-03     17.6024E-03
            4942            5188     15.9280E-03     18.0971E-03
            4943             870     15.6272E-03     15.6693E-03
            4943             871     15.5910E-03     18.4648E-03
            4943            5170     15.3995E-03     16.1038E-03
            4943            5188     15.9280E-03     18.0971E-03
            4944             818     28.5524E-03     26.3253E-03
            4944             819     19.1263E-03     19.5726E-03
            4944            5171     32.0437E-03     29.6450E-03
            4944            5189     20.5105E-03     20.7726E-03
            4945            5171     32.0437E-03     29.6450E-03
            4945            5172     33.4691E-03     31.2207E-03
            4945            5189     20.5105E-03     20.7726E-03
            4945            5190     21.4184E-03     21.6786E-03
            4946            5172     33.4691E-03     31.2207E-03
            4946            5173     33.9392E-03     31.8362E-03
            4946            5190     21.4184E-03     21.6786E-03
            4946            5191     21.5126E-03     21.9452E-03
            4947            5173     33.9392E-03     31.8362E-03
            4947            5174     33.6405E-03     31.6970E-03
            4947            5191     21.5126E-03     21.9452E-03
            4947            5192     21.4148E-03     21.8884E-03
            4948            5174     33.6405E-03     31.6970E-03
            4948            5175     32.8910E-03     31.0808E-03
            4948            5192     21.4148E-03     21.8884E-03
            4948            5193     21.0079E-03     21.5263E-03
            4949            5175     32.8910E-03     31.0808E-03
            4949            5176     31.8048E-03     30.1083E-03
            4949            5193     21.0079E-03     21.5263E-03
            4949            5194     20.5087E-03     21.0160E-03
            4950            5176     31.8048E-03     30.1083E-03
            4950            5177     30.5116E-03     28.9191E-03
            4950            5194     20.5087E-03     21.0160E-03
            4950            5195     19.8701E-03     20.3638E-03
            4951            5177     30.5116E-03     28.9191E-03
            4951            5178     29.0828E-03     27.5797E-03
            4951            5195     19.8701E-03     20.3638E-03
            4951            5196     19.1882E-03     19.6418E-03
            4952            5178     29.0828E-03     27.5797E-03
            4952            5179     27.5805E-03     26.1652E-03
            4952            5196     19.1882E-03     19.6418E-03
            4952            5197     18.4542E-03     18.8661E-03
            4953            5179     27.5805E-03     26.1652E-03
            4953            5180     26.0487E-03     24.7188E-03
            4953            5197     18.4542E-03     18.8661E-03
            4953            5198     17.7153E-03     18.0720E-03
            4954            5180     26.0487E-03     24.7188E-03
            4954            5181     24.5264E-03     23.2851E-03
            4954            5198     17.7153E-03     18.0720E-03
            4954            5199     16.9785E-03     17.2805E-03
            4955            5181     24.5264E-03     23.2851E-03
            4955            5182     23.0411E-03     21.9014E-03
            4955            5199     16.9785E-03     17.2805E-03
            4955            5200     16.2693E-03     16.5102E-03
            4956            5182     23.0411E-03     21.9014E-03
            4956            5183     21.6287E-03     20.6041E-03
            4956            5200     16.2693E-03     16.5102E-03
            4956            5201     15.6015E-03     15.7856E-03
            4957            5183     21.6287E-03     20.6041E-03
            4957            5184     20.3000E-03     19.4397E-03
            4957            5201     15.6015E-03     15.7856E-03
            4957            5202     14.9939E-03     15.1140E-03
            4958            5184     20.3000E-03     19.4397E-03
            4958            5185     19.0884E-03     18.4659E-03
            4958            5202     14.9939E-03     15.1140E-03
            4958            5203     14.4395E-03     14.5622E-03
            4959            5185     19.0884E-03     18.4659E-03
            4959            5186     17.9567E-03     17.7548E-03
            4959            5203     14.4395E-03     14.5622E-03
            4959            5204     13.9948E-03     14.0499E-03
            4960            5186     17.9567E-03     17.7548E-03
            4960            5187     16.8264E-03     17.6024E-03
            4960            5204     13.9948E-03     14.0499E-03
            4960            5205     13.5319E-03     13.7901E-03
            4961            5187     16.8264E-03     17.6024E-03
            4961            5188     15.9280E-03     18.0971E-03
            4961            5205     13.5319E-03     13.7901E-03
            4961            5206     12.4748E-03     14.2340E-03
            4962             871     15.5910E-03     18.4648E-03
            4962             872     11.7062E-03     14.6593E-03
            4962            5188     15.9280E-03     18.0971E-03
            4962            5206     12.4748E-03     14.2340E-03
            4963             819     19.1263E-03     19.5726E-03
            4963             820     11.6234E-03     14.5951E-03
            4963            5189     20.5105E-03     20.7726E-03
            4963            5207     11.4321E-03     13.8605E-03
            4964            5189     20.5105E-03     20.7726E-03
            4964            5190     21.4184E-03     21.6786E-03
            4964            5207     11.4321E-03     13.8605E-03
            4964            5208     11.2924E-03     13.5773E-03
            4965            5190     21.4184E-03     21.6786E-03
            4965            5191     21.5126E-03     21.9452E-03
            4965            5208     11.2924E-03     13.5773E-03
            4965            5209     10.8657E-03     13.1655E-03
            4966            5191     21.5126E-03     21.9452E-03
            4966            5192     21.4148E-03     21.8884E-03
            4966            5209     10.8657E-03     13.1655E-03
            4966            5210     10.6397E-03     12.8377E-03
            4967            5192     21.4148E-03     21.8884E-03
            4967            5193     21.0079E-03     21.5263E-03
            4967            5210     10.6397E-03     12.8377E-03
            4967            5211     10.3644E-03     12.4804E-03
            4968            5193     21.0079E-03     21.5263E-03
            4968            5194     20.5087E-03     21.0160E-03
            4968            5211     10.3644E-03     12.4804E-03
            4968            5212     10.1708E-03     12.1769E-03
            4969            5194     20.5087E-03     21.0160E-03
            4969            5195     19.8701E-03     20.3638E-03
            4969            5212     10.1708E-03     12.1769E-03
            4969            5213     9.97543E-03     11.8677E-03
            4970            5195     19.8701E-03     20.3638E-03
            4970            5196     19.1882E-03     19.6418E-03
            4970            5213     9.97543E-03     11.8677E-03
            4970            5214     9.81932E-03     11.5869E-03
            4971            5196     19.1882E-03     19.6418E-03
            4971            5197     18.4542E-03     18.8661E-03
            4971            5214     9.81932E-03     11.5869E-03
            4971            5215     9.67601E-03     11.3114E-03
            4972            5197     18.4542E-03     18.8661E-03
            4972            5198     17.7153E-03     18.0720E-03
            4972            5215     9.67601E-03     11.3114E-03
            4972            5216     9.55947E-03     11.0553E-03
            4973            5198     17.7153E-03     18.0720E-03
            4973            5199     16.9785E-03     17.2805E-03
            4973            5216     9.55947E-03     11.0553E-03
            4973            5217     9.46148E-03     10.8103E-03
            4974            5199     16.9785E-03     17.2805E-03
            4974            5200     16.2693E-03     16.5102E-03
            4974            5217     9.46148E-03     10.8103E-03
            4974            5218     9.38723E-03     10.5824E-03
            4975            5200     16.2693E-03     16.5102E-03
            4975            5201     15.6015E-03     15.7856E-03
            4975            5218     9.38723E-03     10.5824E-03
            4975            5219     9.33365E-03     10.3691E-03
            4976            5201     15.6015E-03     15.7856E-03
            4976            5202     14.9939E-03     15.1140E-03
            4976            5219     9.33365E-03     10.3691E-03
            4976            5220     9.30335E-03     10.1768E-03
            4977            5202     14.9939E-03     15.1140E-03
            4977            5203     14.4395E-03     14.5622E-03
            4977            5220     9.30335E-03     10.1768E-03
            4977            5221     9.30000E-03     10.0016E-03
            4978            5203     14.4395E-03     14.5622E-03
            4978            5204     13.9948E-03     14.0499E-03
            4978            5221     9.30000E-03     10.0016E-03
            4978            5222     9.32953E-03     9.86253E-03
            4979            5204     13.9948E-03     14.0499E-03
            4979            5205     13.5319E-03     13.7901E-03
            4979            5222     9.32953E-03     9.86253E-03
            4979            5223     9.39609E-03     9.74557E-03
            4980            5205     13.5319E-03     13.7901E-03
            4980            5206     12.4748E-03     14.2340E-03
            4980            5223     9.39609E-03     9.74557E-03
            4980            5224     9.52684E-03     9.54672E-03
            4981             872     11.7062E-03     14.6593E-03
            4981             873     9.61523E-03     9.41020E-03
            4981            5206     12.4748E-03     14.2340E-03
            4981            5224     9.52684E-03     9.54672E-03
            4982             820     11.6234E-03     14.5951E-03
            4982             821     13.0273E-03     13.2400E-03
            4982            5207     11.4321E-03     13.8605E-03
            4982            5225     13.3938E-03     13.2194E-03
            4983            5207     11.4321E-03     13.8605E-03
            4983            5208     11.2924E-03     13.5773E-03
            4983            5225     13.3938E-03     13.2194E-03
            4983            5226     12.4907E-03     12.6272E-03
            4984            5208     11.2924E-03     13.5773E-03
            4984            5209     10.8657E-03     13.1655E-03
            4984            5226     12.4907E-03     12.6272E-03
            4984            5227     12.1253E-03     12.1893E-03
            4985            5209     10.8657E-03     13.1655E-03
            4985            5210     10.6397E-03     12.8377E-03
            4985            5227     12.1253E-03     12.1893E-03
            4985            5228     11.7507E-03     11.8291E-03
            4986            5210     10.6397E-03     12.8377E-03
            4986            5211     10.3644E-03     12.4804E-03
            4986            5228     11.7507E-03     11.8291E-03
            4986            5229     11.4994E-03     11.5761E-03
            4987            5211     10.3644E-03     12.4804E-03
            4987            5212     10.1708E-03     12.1769E-03
            4987            5229     11.4994E-03     11.5761E-03
            4987            5230     11.2382E-03     11.3131E-03
            4988            5212     10.1708E-03     12.1769E-03
            4988            5213     9.97543E-03     11.8677E-03
            4988            5230     11.2382E-03     11.3131E-03
            4988            5231     11.0151E-03     11.0837E-03
            4989            5213     9.97543E-03     11.8677E-03
            4989            5214     9.81932E-03     11.5869E-03
            4989            5231     11.0151E-03     11.0837E-03
            4989            5232     10.7921E-03     10.8577E-03
            4990            5214     9.81932E-03     11.5869E-03
            4990            5215     9.67601E-03     11.3114E-03
            4990            5232     10.7921E-03     10.8577E-03
            4990            5233     10.5938E-03     10.6530E-03
            4991            5215     9.67601E-03     11.3114E-03
            4991            5216     9.55947E-03     11.0553E-03
            4991            5233     10.5938E-03     10.6530E-03
            4991            5234     10.4061E-03     10.4601E-03
            4992            5216     9.55947E-03     11.0553E-03
            4992            5217     9.46148E-03     10.8103E-03
            4992            5234     10.4061E-03     10.4601E-03
            4992            5235     10.2389E-03     10.2869E-03
            4993            5217     9.46148E-03     10.8103E-03
            4993            5218     9.38723E-03     10.5824E-03
            4993            5235     10.2389E-03     10.2869E-03
            4993            5236     10.0884E-03     10.1281E-03
            4994            5218     9.38723E-03     10.5824E-03
            4994            5219     9.33365E-03     10.3691E-03
            4994            5236     10.0884E-03     10.1281E-03
            4994            5237     9.95592E-03     9.99167E-03
            4995            5219     9.33365E-03     10.3691E-03
            4995            5220     9.30335E-03     10.1768E-03
            4995            5237     9.95592E-03     9.99167E-03
            4995            5238     9.84144E-03     9.87546E-03
            4996            5220     9.30335E-03     10.1768E-03
            4996            5221     9.30000E-03     10.0016E-03
            4996            5238     9.84144E-03     9.87546E-03
            4996            5239     9.77767E-03     9.75527E-03
            4997            5221     9.30000E-03     10.0016E-03
            4997            5222     9.32953E-03     9.86253E-03
            4997            5239     9.77767E-03     9.75527E-03
            4997            5240     9.67266E-03     9.76713E-03
            4998            5222     9.32953E-03     9.86253E-03
            4998            5223     9.39609E-03     9.74557E-03
            4998            5240     9.67266E-03     9.76713E-03
            4998            5241     9.73197E-03     9.82661E-03
            4999            5223     9.39609E-03     9.74557E-03
            4999            5224     9.52684E-03     9.54672E-03
            4999            5241     9.73197E-03     9.82661E-03
            4999            5242     10.4189E-03     9.36339E-03
            5000             873     9.61523E-03     9.41020E-03
            5000             874     10.9543E-03     8.91802E-03
            5000            5224     9.52684E-03     9.54672E-03
            5000            5242     10.4189E-03     9.36339E-03
            5001             821     13.0273E-03     13.2400E-03
            5001             822     12.3667E-03     9.92267E-03
            5001            5225     13.3938E-03     13.2194E-03
            5001            5243     13.9483E-03     11.4973E-03
            5002            5225     13.3938E-03     13.2194E-03
            5002            5226     12.4907E-03     12.6272E-03
            5002            5243     13.9483E-03     11.4973E-03
            5002            5244     13.6893E-03     11.5019E-03
            5003            5226     12.4907E-03     12.6272E-03
            5003            5227     12.1253E-03     12.1893E-03
            5003            5244     13.6893E-03     11.5019E-03
            5003            5245     13.3526E-03     11.2448E-03
            5004            5227     12.1253E-03     12.1893E-03
            5004            5228     11.7507E-03     11.8291E-03
            5004            5245     13.3526E-03     11.2448E-03
            5004            5246     13.0443E-03     11.0543E-03
            5005            5228     11.7507E-03     11.8291E-03
            5005            5229     11.4994E-03     11.5761E-03
            5005            5246     13.0443E-03     11.0543E-03
            5005            5247     12.7576E-03     10.8682E-03
            5006            5229     11.4994E-03     11.5761E-03
            5006            5230     11.2382E-03     11.3131E-03
            5006            5247     12.7576E-03     10.8682E-03
            5006            5248     12.4901E-03     10.7053E-03
            5007            5230     11.2382E-03     11.3131E-03
            5007            5231     11.0151E-03     11.0837E-03
            5007            5248     12.4901E-03     10.7053E-03
            5007            5249     12.2219E-03     10.5469E-03
            5008            5231     11.0151E-03     11.0837E-03
            5008            5232     10.7921E-03     10.8577E-03
            5008            5249     12.2219E-03     10.5469E-03
            5008            5250     11.9655E-03     10.4041E-03
            5009            5232     10.7921E-03     10.8577E-03
            5009            5233     10.5938E-03     10.6530E-03
            5009            5250     11.9655E-03     10.4041E-03
            5009            5251     11.7150E-03     10.2739E-03
            5010            5233     10.5938E-03     10.6530E-03
            5010            5234     10.4061E-03     10.4601E-03
            5010            5251     11.7150E-03     10.2739E-03
            5010            5252     11.4780E-03     10.1612E-03
            5011            5234     10.4061E-03     10.4601E-03
            5011            5235     10.2389E-03     10.2869E-03
            5011            5252     11.4780E-03     10.1612E-03
            5011            5253     11.2519E-03     10.0656E-03
            5012            5235     10.2389E-03     10.2869E-03
            5012            5236     10.0884E-03     10.1281E-03
            5012            5253     11.2519E-03     10.0656E-03
            5012            5254     11.0409E-03     9.98955E-03
            5013            5236     10.0884E-03     10.1281E-03
            5013            5237     9.95592E-03     9.99167E-03
            5013            5254     11.0409E-03     9.98955E-03
            5013            5255     10.8437E-03     9.93218E-03
            5014            5237     9.95592E-03     9.99167E-03
            5014            5238     9.84144E-03     9.87546E-03
            5014            5255     10.8437E-03     9.93218E-03
            5014            5256     10.6654E-03     9.89489E-03
            5015            5238     9.84144E-03     9.87546E-03
            5015            5239     9.77767E-03     9.75527E-03
            5015            5256     10.6654E-03     9.89489E-03
            5015            5257     10.5033E-03     9.88341E-03
            5016            5239     9.77767E-03     9.75527E-03
            5016            5240     9.67266E-03     9.76713E-03
            5016            5257     10.5033E-03     9.88341E-03
            5016            5258     10.3607E-03     9.90137E-03
            5017            5240     9.67266E-03     9.76713E-03
            5017            5241     9.73197E-03     9.82661E-03
            5017            5258     10.3607E-03     9.90137E-03
            5017            5259     10.2440E-03     9.96507E-03
            5018            5241     9.73197E-03     9.82661E-03
            5018            5242     10.4189E-03     9.36339E-03
            5018            5259     10.2440E-03     9.96507E-03
            5018            5260     10.1706E-03     10.0623E-03
            5019             874     10.9543E-03     8.91802E-03
            5019             875     10.1497E-03     10.1128E-03
            5019            5242     10.4189E-03     9.36339E-03
            5019            5260     10.1706E-03     10.0623E-03
            5020              36     6.20296E-03     4.36397E-03
            5020             822     12.3667E-03     9.92267E-03
            5020             893     7.20516E-03     5.52634E-03
            5020            5243     13.9483E-03     11.4973E-03
            5021             892     7.53707E-03     5.85156E-03
            5021             893     7.20516E-03     5.52634E-03
            5021            5243     13.9483E-03     11.4973E-03
            5021            5244     13.6893E-03     11.5019E-03
            5022             891     7.30409E-03     5.77683E-03
            5022             892     7.53707E-03     5.85156E-03
            5022            5244     13.6893E-03     11.5019E-03
            5022            5245     13.3526E-03     11.2448E-03
            5023             890     7.21910E-03     5.76748E-03
            5023             891     7.30409E-03     5.77683E-03
            5023            5245     13.3526E-03     11.2448E-03
            5023            5246     13.0443E-03     11.0543E-03
            5024             889     7.03820E-03     5.66143E-03
            5024             890     7.21910E-03     5.76748E-03
            5024            5246     13.0443E-03     11.0543E-03
            5024            5247     12.7576E-03     10.8682E-03
            5025             888     6.91014E-03     5.61432E-03
            5025             889     7.03820E-03     5.66143E-03
            5025            5247     12.7576E-03     10.8682E-03
            5025            5248     12.4901E-03     10.7053E-03
            5026             887     6.75127E-03     5.53678E-03
            5026             888     6.91014E-03     5.61432E-03
            5026            5248     12.4901E-03     10.7053E-03
            5026            5249     12.2219E-03     10.5469E-03
            5027             886     6.61352E-03     5.48496E-03
            5027             887     6.75127E-03     5.53678E-03
            5027            5249     12.2219E-03     10.5469E-03
            5027            5250     11.9655E-03     10.4041E-03
            5028             885     6.46828E-03     5.42830E-03
            5028             886     6.61352E-03     5.48496E-03
            5028            5250     11.9655E-03     10.4041E-03
            5028            5251     11.7150E-03     10.2739E-03
            5029             884     6.33479E-03     5.38764E-03
            5029             885     6.46828E-03     5.42830E-03
            5029            5251     11.7150E-03     10.2739E-03
            5029            5252     11.4780E-03     10.1612E-03
            5030             883     6.20347E-03     5.35176E-03
            5030             884     6.33479E-03     5.38764E-03
            5030            5252     11.4780E-03     10.1612E-03
            5030            5253     11.2519E-03     10.0656E-03
            5031             882     6.08115E-03     5.32935E-03
            5031             883     6.20347E-03     5.35176E-03
            5031            5253     11.2519E-03     10.0656E-03
            5031            5254     11.0409E-03     9.98955E-03
            5032             881     5.96558E-03     5.31400E-03
            5032             882     6.08115E-03     5.32935E-03
            5032            5254     11.0409E-03     9.98955E-03
            5032            5255     10.8437E-03     9.93218E-03
            5033             880     5.85977E-03     5.30996E-03
            5033             881     5.96558E-03     5.31400E-03
            5033            5255     10.8437E-03     9.93218E-03
            5033            5256     10.6654E-03     9.89489E-03
            5034             879     5.75083E-03     5.33053E-03
            5034             880     5.85977E-03     5.30996E-03
            5034            5256     10.6654E-03     9.89489E-03
            5034            5257     10.5033E-03     9.88341E-03
            5035             878     5.67995E-03     5.31765E-03
            5035             879     5.75083E-03     5.33053E-03
            5035            5257     10.5033E-03     9.88341E-03
            5035            5258     10.3607E-03     9.90137E-03
            5036             877     5.55472E-03     5.33568E-03
            5036             878     5.67995E-03     5.31765E-03
            5036            5258     10.3607E-03     9.90137E-03
            5036            5259     10.2440E-03     9.96507E-03
            5037             876     5.15113E-03     5.60058E-03
            5037             877     5.55472E-03     5.33568E-03
            5037            5259     10.2440E-03     9.96507E-03
            5037            5260     10.1706E-03     10.0623E-03
            5038              37     4.85974E-03     5.81515E-03
            5038             875     10.1497E-03     10.1128E-03
            5038             876     5.15113E-03     5.60058E-03
            5038            5260     10.1706E-03     10.0623E-03
            5039              37     4.85974E-03     5.81515E-03
            5039             894     5.15113E-03     5.60058E-03
            5039             941     568.651E-06     636.833E-06
            5039            5261     569.519E-06     631.032E-06
            5040             894     5.15113E-03     5.60058E-03
            5040             895     5.55472E-03     5.33568E-03
            5040            5261     569.519E-06     631.032E-06
            5040            5262     575.291E-06     620.661E-06
            5041             895     5.55472E-03     5.33568E-03
            5041             896     5.67995E-03     5.31765E-03
            5041            5262     575.291E-06     620.661E-06
            5041            5263     583.352E-06     619.080E-06
            5042             896     5.67995E-03     5.31765E-03
            5042             897     5.75083E-03     5.33053E-03
            5042            5263     583.352E-06     619.080E-06
            5042            5264     587.230E-06     626.438E-06
            5043             897     5.75083E-03     5.33053E-03
            5043             898     5.85977E-03     5.30996E-03
            5043            5264     587.230E-06     626.438E-06
            5043            5265     590.158E-06     636.276E-06
            5044             898     5.85977E-03     5.30996E-03
            5044             899     5.96558E-03     5.31400E-03
            5044            5265     590.158E-06     636.276E-06
            5044            5266     594.626E-06     647.249E-06
            5045             899     5.96558E-03     5.31400E-03
            5045             900     6.08115E-03     5.32935E-03
            5045            5266     594.626E-06     647.249E-06
            5045            5267     600.558E-06     658.987E-06
            5046             900     6.08115E-03     5.32935E-03
            5046             901     6.20347E-03     5.35176E-03
            5046            5267     600.558E-06     658.987E-06
            5046            5268     608.590E-06     671.732E-06
            5047             901     6.20347E-03     5.35176E-03
            5047             902     6.33479E-03     5.38764E-03
            5047            5268     608.590E-06     671.732E-06
            5047            5269     618.190E-06     685.556E-06
            5048             902     6.33479E-03     5.38764E-03
            5048             903     6.46828E-03     5.42830E-03
            5048            5269     618.190E-06     685.556E-06
            5048            5270     629.709E-06     700.245E-06
            5049             903     6.46828E-03     5.42830E-03
            5049             904     6.61352E-03     5.48496E-03
            5049            5270     629.709E-06     700.245E-06
            5049            5271     642.581E-06     716.028E-06
            5050             904     6.61352E-03     5.48496E-03
            5050             905     6.75127E-03     5.53678E-03
            5050            5271     642.581E-06     716.028E-06
            5050            5272     656.938E-06     732.214E-06
            5051             905     6.75127E-03     5.53678E-03
            5051             906     6.91014E-03     5.61432E-03
            5051            5272     656.938E-06     732.214E-06
            5051            5273     672.032E-06     749.141E-06
            5052             906     6.91014E-03     5.61432E-03
            5052             907     7.03820E-03     5.66143E-03
            5052            5273     672.032E-06     749.141E-06
            5052            5274     687.237E-06     765.386E-06
            5053             907     7.03820E-03     5.66143E-03
            5053             908     7.21910E-03     5.76748E-03
            5053            5274     687.237E-06     765.386E-06
            5053            5275     702.559E-06     782.160E-06
            5054             908     7.21910E-03     5.76748E-03
            5054             909     7.30409E-03     5.77683E-03
            5054            5275     702.559E-06     782.160E-06
            5054            5276     715.815E-06     797.343E-06
            5055             909     7.30409E-03     5.77683E-03
            5055             910     7.53707E-03     5.85156E-03
            5055            5276     715.815E-06     797.343E-06
            5055            5277     735.783E-06     818.985E-06
            5056             910     7.53707E-03     5.85156E-03
            5056             911     7.20516E-03     5.52634E-03
            5056            5277     735.783E-06     818.985E-06
            5056            5278     765.902E-06     853.194E-06
            5057              38     6.20296E-03     4.36397E-03
            5057             911     7.20516E-03     5.52634E-03
            5057             912     872.842E-06     958.717E-06
            5057            5278     765.902E-06     853.194E-06
            5058             940     647.427E-06     585.361E-06
            5058             941     568.651E-06     636.833E-06
            5058            5261     569.519E-06     631.032E-06
            5058            5279     630.967E-06     603.833E-06
            5059            5261     569.519E-06     631.032E-06
            5059            5262     575.291E-06     620.661E-06
            5059            5279     630.967E-06     603.833E-06
            5059            5280     608.569E-06     626.316E-06
            5060            5262     575.291E-06     620.661E-06
            5060            5263     583.352E-06     619.080E-06
            5060            5280     608.569E-06     626.316E-06
            5060            5281     605.050E-06     631.088E-06
            5061            5263     583.352E-06     619.080E-06
            5061            5264     587.230E-06     626.438E-06
            5061            5281     605.050E-06     631.088E-06
            5061            5282     608.095E-06     636.989E-06
            5062            5264     587.230E-06     626.438E-06
            5062            5265     590.158E-06     636.276E-06
            5062            5282     608.095E-06     636.989E-06
            5062            5283     610.474E-06     645.759E-06
            5063            5265     590.158E-06     636.276E-06
            5063            5266     594.626E-06     647.249E-06
            5063            5283     610.474E-06     645.759E-06
            5063            5284     615.549E-06     654.481E-06
            5064            5266     594.626E-06     647.249E-06
            5064            5267     600.558E-06     658.987E-06
            5064            5284     615.549E-06     654.481E-06
            5064            5285     622.535E-06     664.868E-06
            5065            5267     600.558E-06     658.987E-06
            5065            5268     608.590E-06     671.732E-06
            5065            5285     622.535E-06     664.868E-06
            5065            5286     631.046E-06     676.386E-06
            5066            5268     608.590E-06     671.732E-06
            5066            5269     618.190E-06     685.556E-06
            5066            5286     631.046E-06     676.386E-06
            5066            5287     641.450E-06     689.170E-06
            5067            5269     618.190E-06     685.556E-06
            5067            5270     629.709E-06     700.245E-06
            5067            5287     641.450E-06     689.170E-06
            5067            5288     653.396E-06     703.273E-06
            5068            5270     629.709E-06     700.245E-06
            5068            5271     642.581E-06     716.028E-06
            5068            5288     653.396E-06     703.273E-06
            5068            5289     667.141E-06     718.556E-06
            5069            5271     642.581E-06     716.028E-06
            5069            5272     656.938E-06     732.214E-06
            5069            5289     667.141E-06     718.556E-06
            5069            5290     682.539E-06     735.345E-06
            5070            5272     656.938E-06     732.214E-06
            5070            5273     672.032E-06     749.141E-06
            5070            5290     682.539E-06     735.345E-06
            5070            5291     699.530E-06     753.205E-06
            5071            5273     672.032E-06     749.141E-06
            5071            5274     687.237E-06     765.386E-06
            5071            5291     699.530E-06     753.205E-06
            5071            5292     718.229E-06     772.747E-06
            5072            5274     687.237E-06     765.386E-06
            5072            5275     702.559E-06     782.160E-06
            5072            5292     718.229E-06     772.747E-06
            5072            5293     737.173E-06     792.622E-06
            5073            5275     702.559E-06     782.160E-06
            5073            5276     715.815E-06     797.343E-06
            5073            5293     737.173E-06     792.622E-06
            5073            5294     757.770E-06     813.843E-06
            5074            5276     715.815E-06     797.343E-06
            5074            5277     735.783E-06     818.985E-06
            5074            5294     757.770E-06     813.843E-06
            5074            5295     773.584E-06     832.805E-06
            5075            5277     735.783E-06     818.985E-06
            5075            5278     765.902E-06     853.194E-06
            5075            5295     773.584E-06     832.805E-06
            5075            5296     799.680E-06     853.585E-06
            5076             912     872.842E-06     958.717E-06
            5076             913     867.506E-06     905.706E-06
            5076            5278     765.902E-06     853.194E-06
            5076            5296     799.680E-06     853.585E-06
            5077             939     662.237E-06     589.747E-06
            5077             940     647.427E-06     585.361E-06
            5077            5279     630.967E-06     603.833E-06
            5077            5297     658.991E-06     597.519E-06
            5078            5279     630.967E-06     603.833E-06
            5078            5280     608.569E-06     626.316E-06
            5078            5297     658.991E-06     597.519E-06
            5078            5298     647.238E-06     619.250E-06
            5079            5280     608.569E-06     626.316E-06
            5079            5281     605.050E-06     631.088E-06
            5079            5298     647.238E-06     619.250E-06
            5079            5299     633.504E-06     640.317E-06
            5080            5281     605.050E-06     631.088E-06
            5080            5282     608.095E-06     636.989E-06
            5080            5299     633.504E-06     640.317E-06
            5080            5300     629.152E-06     649.417E-06
            5081            5282     608.095E-06     636.989E-06
            5081            5283     610.474E-06     645.759E-06
            5081            5300     629.152E-06     649.417E-06
            5081            5301     632.584E-06     654.927E-06
            5082            5283     610.474E-06     645.759E-06
            5082            5284     615.549E-06     654.481E-06
            5082            5301     632.584E-06     654.927E-06
            5082            5302     638.301E-06     662.184E-06
            5083            5284     615.549E-06     654.481E-06
            5083            5285     622.535E-06     664.868E-06
            5083            5302     638.301E-06     662.184E-06
            5083            5303     645.765E-06     670.699E-06
            5084            5285     622.535E-06     664.868E-06
            5084            5286     631.046E-06     676.386E-06
            5084            5303     645.765E-06     670.699E-06
            5084            5304     654.873E-06     680.767E-06
            5085            5286     631.046E-06     676.386E-06
            5085            5287     641.450E-06     689.170E-06
            5085            5304     654.873E-06     680.767E-06
            5085            5305     665.402E-06     692.248E-06
            5086            5287     641.450E-06     689.170E-06
            5086            5288     653.396E-06     703.273E-06
            5086            5305     665.402E-06     692.248E-06
            5086            5306     677.579E-06     705.154E-06
            5087            5288     653.396E-06     703.273E-06
            5087            5289     667.141E-06     718.556E-06
            5087            5306     677.579E-06     705.154E-06
            5087            5307     691.490E-06     719.713E-06
            5088            5289     667.141E-06     718.556E-06
            5088            5290     682.539E-06     735.345E-06
            5088            5307     691.490E-06     719.713E-06
            5088            5308     707.363E-06     736.066E-06
            5089            5290     682.539E-06     735.345E-06
            5089            5291     699.530E-06     753.205E-06
            5089            5308     707.363E-06     736.066E-06
            5089            5309     725.579E-06     754.639E-06
            5090            5291     699.530E-06     753.205E-06
            5090            5292     718.229E-06     772.747E-06
            5090            5309     725.579E-06     754.639E-06
            5090            5310     745.989E-06     775.505E-06
            5091            5292     718.229E-06     772.747E-06
            5091            5293     737.173E-06     792.622E-06
            5091            5310     745.989E-06     775.505E-06
            5091            5311     768.395E-06     798.105E-06
            5092            5293     737.173E-06     792.622E-06
            5092            5294     757.770E-06     813.843E-06
            5092            5311     768.395E-06     798.105E-06
            5092            5312     789.550E-06     820.602E-06
            5093            5294     757.770E-06     813.843E-06
            5093            5295     773.584E-06     832.805E-06
            5093            5312     789.550E-06     820.602E-06
            5093            5313     802.637E-06     835.319E-06
            5094            5295     773.584E-06     832.805E-06
            5094            5296     799.680E-06     853.585E-06
            5094            5313     802.637E-06     835.319E-06
            5094            5314     794.947E-06     831.959E-06
            5095             913     867.506E-06     905.706E-06
            5095             914     750.930E-06     786.064E-06
            5095            5296     799.680E-06     853.585E-06
            5095            5314     794.947E-06     831.959E-06
            5096             938     679.686E-06     605.652E-06
            5096             939     662.237E-06     589.747E-06
            5096            5297     658.991E-06     597.519E-06
            5096            5315     676.709E-06     615.424E-06
            5097            5297     658.991E-06     597.519E-06
            5097            5298     647.238E-06     619.250E-06
            5097            5315     676.709E-06     615.424E-06
            5097            5316     665.492E-06     637.809E-06
            5098            5298     647.238E-06     619.250E-06
            5098            5299     633.504E-06     640.317E-06
            5098            5316     665.492E-06     637.809E-06
            5098            5317     653.358E-06     655.000E-06
            5099            5299     633.504E-06     640.317E-06
            5099            5300     629.152E-06     649.417E-06
            5099            5317     653.358E-06     655.000E-06
            5099            5318     651.476E-06     660.767E-06
            5100            5300     629.152E-06     649.417E-06
            5100            5301     632.584E-06     654.927E-06
            5100            5318     651.476E-06     660.767E-06
            5100            5319     656.311E-06     664.423E-06
            5101            5301     632.584E-06     654.927E-06
            5101            5302     638.301E-06     662.184E-06
            5101            5319     656.311E-06     664.423E-06
            5101            5320     662.832E-06     669.921E-06
            5102            5302     638.301E-06     662.184E-06
            5102            5303     645.765E-06     670.699E-06
            5102            5320     662.832E-06     669.921E-06
            5102            5321     670.833E-06     676.811E-06
            5103            5303     645.765E-06     670.699E-06
            5103            5304     654.873E-06     680.767E-06
            5103            5321     670.833E-06     676.811E-06
            5103            5322     680.065E-06     685.252E-06
            5104            5304     654.873E-06     680.767E-06
            5104            5305     665.402E-06     692.248E-06
            5104            5322     680.065E-06     685.252E-06
            5104            5323     690.477E-06     695.025E-06
            5105            5305     665.402E-06     692.248E-06
            5105            5306     677.579E-06     705.154E-06
            5105            5323     690.477E-06     695.025E-06
            5105            5324     702.240E-06     706.215E-06
            5106            5306     677.579E-06     705.154E-06
            5106            5307     691.490E-06     719.713E-06
            5106            5324     702.240E-06     706.215E-06
            5106            5325     715.432E-06     718.931E-06
            5107            5307     691.490E-06     719.713E-06
            5107            5308     707.363E-06     736.066E-06
            5107            5325     715.432E-06     718.931E-06
            5107            5326     730.406E-06     733.447E-06
            5108            5308     707.363E-06     736.066E-06
            5108            5309     725.579E-06     754.639E-06
            5108            5326     730.406E-06     733.447E-06
            5108            5327     747.420E-06     750.132E-06
            5109            5309     725.579E-06     754.639E-06
            5109            5310     745.989E-06     775.505E-06
            5109            5327     747.420E-06     750.132E-06
            5109            5328     766.366E-06     768.701E-06
            5110            5310     745.989E-06     775.505E-06
            5110            5311     768.395E-06     798.105E-06
            5110            5328     766.366E-06     768.701E-06
            5110            5329     786.855E-06     789.007E-06
            5111            5311     768.395E-06     798.105E-06
            5111            5312     789.550E-06     820.602E-06
            5111            5329     786.855E-06     789.007E-06
            5111            5330     802.749E-06     805.629E-06
            5112            5312     789.550E-06     820.602E-06
            5112            5313     802.637E-06     835.319E-06
            5112            5330     802.749E-06     805.629E-06
            5112            5331     808.406E-06     811.996E-06
            5113            5313     802.637E-06     835.319E-06
            5113            5314     794.947E-06     831.959E-06
            5113            5331     808.406E-06     811.996E-06
            5113            5332     760.779E-06     778.384E-06
            5114             914     750.930E-06     786.064E-06
            5114             915     621.540E-06     656.864E-06
            5114            5314     794.947E-06     831.959E-06
            5114            5332     760.779E-06     778.384E-06
            5115             937     700.564E-06     646.348E-06
            5115             938     679.686E-06     605.652E-06
            5115            5315     676.709E-06     615.424E-06
            5115            5333     683.634E-06     663.046E-06
            5116            5315     676.709E-06     615.424E-06
            5116            5316     665.492E-06     637.809E-06
            5116            5333     683.634E-06     663.046E-06
            5116            5334     663.874E-06     678.113E-06
            5117            5316     665.492E-06     637.809E-06
            5117            5317     653.358E-06     655.000E-06
            5117            5334     663.874E-06     678.113E-06
            5117            5335     666.971E-06     672.721E-06
            5118            5317     653.358E-06     655.000E-06
            5118            5318     651.476E-06     660.767E-06
            5118            5335     666.971E-06     672.721E-06
            5118            5336     675.647E-06     671.025E-06
            5119            5318     651.476E-06     660.767E-06
            5119            5319     656.311E-06     664.423E-06
            5119            5336     675.647E-06     671.025E-06
            5119            5337     681.782E-06     674.202E-06
            5120            5319     656.311E-06     664.423E-06
            5120            5320     662.832E-06     669.921E-06
            5120            5337     681.782E-06     674.202E-06
            5120            5338     689.357E-06     677.932E-06
            5121            5320     662.832E-06     669.921E-06
            5121            5321     670.833E-06     676.811E-06
            5121            5338     689.357E-06     677.932E-06
            5121            5339     697.777E-06     683.532E-06
            5122            5321     670.833E-06     676.811E-06
            5122            5322     680.065E-06     685.252E-06
            5122            5339     697.777E-06     683.532E-06
            5122            5340     706.865E-06     690.203E-06
            5123            5322     680.065E-06     685.252E-06
            5123            5323     690.477E-06     695.025E-06
            5123            5340     706.865E-06     690.203E-06
            5123            5341     716.954E-06     698.039E-06
            5124            5323     690.477E-06     695.025E-06
            5124            5324     702.240E-06     706.215E-06
            5124            5341     716.954E-06     698.039E-06
            5124            5342     727.701E-06     706.942E-06
            5125            5324     702.240E-06     706.215E-06
            5125            5325     715.432E-06     718.931E-06
            5125            5342     727.701E-06     706.942E-06
            5125            5343     739.397E-06     716.855E-06
            5126            5325     715.432E-06     718.931E-06
            5126            5326     730.406E-06     733.447E-06
            5126            5343     739.397E-06     716.855E-06
            5126            5344     751.855E-06     727.874E-06
            5127            5326     730.406E-06     733.447E-06
            5127            5327     747.420E-06     750.132E-06
            5127            5344     751.855E-06     727.874E-06
            5127            5345     765.048E-06     739.630E-06
            5128            5327     747.420E-06     750.132E-06
            5128            5328     766.366E-06     768.701E-06
            5128            5345     765.048E-06     739.630E-06
            5128            5346     778.679E-06     752.037E-06
            5129            5328     766.366E-06     768.701E-06
            5129            5329     786.855E-06     789.007E-06
            5129            5346     778.679E-06     752.037E-06
            5129            5347     790.090E-06     762.299E-06
            5130            5329     786.855E-06     789.007E-06
            5130            5330     802.749E-06     805.629E-06
            5130            5347     790.090E-06     762.299E-06
            5130            5348     796.916E-06     767.762E-06
            5131            5330     802.749E-06     805.629E-06
            5131            5331     808.406E-06     811.996E-06
            5131            5348     796.916E-06     767.762E-06
            5131            5349     781.153E-06     753.810E-06
            5132            5331     808.406E-06     811.996E-06
            5132            5332     760.779E-06     778.384E-06
            5132            5349     781.153E-06     753.810E-06
            5132            5350     726.524E-06     700.707E-06
            5133             915     621.540E-06     656.864E-06
            5133             916     559.104E-06     552.825E-06
            5133            5332     760.779E-06     778.384E-06
            5133            5350     726.524E-06     700.707E-06
            5134             936     651.459E-06     738.993E-06
            5134             937     700.564E-06     646.348E-06
            5134            5333     683.634E-06     663.046E-06
            5134            5351     657.279E-06     724.306E-06
            5135            5333     683.634E-06     663.046E-06
            5135            5334     663.874E-06     678.113E-06
            5135            5351     657.279E-06     724.306E-06
            5135            5352     673.195E-06     697.830E-06
            5136            5334     663.874E-06     678.113E-06
            5136            5335     666.971E-06     672.721E-06
            5136            5352     673.195E-06     697.830E-06
            5136            5353     690.392E-06     684.411E-06
            5137            5335     666.971E-06     672.721E-06
            5137            5336     675.647E-06     671.025E-06
            5137            5353     690.392E-06     684.411E-06
            5137            5354     701.102E-06     682.609E-06
            5138            5336     675.647E-06     671.025E-06
            5138            5337     681.782E-06     674.202E-06
            5138            5354     701.102E-06     682.609E-06
            5138            5355     709.399E-06     683.890E-06
            5139            5337     681.782E-06     674.202E-06
            5139            5338     689.357E-06     677.932E-06
            5139            5355     709.399E-06     683.890E-06
            5139            5356     717.854E-06     686.994E-06
            5140            5338     689.357E-06     677.932E-06
            5140            5339     697.777E-06     683.532E-06
            5140            5356     717.854E-06     686.994E-06
            5140            5357     726.314E-06     690.987E-06
            5141            5339     697.777E-06     683.532E-06
            5141            5340     706.865E-06     690.203E-06
            5141            5357     726.314E-06     690.987E-06
            5141            5358     735.566E-06     695.982E-06
            5142            5340     706.865E-06     690.203E-06
            5142            5341     716.954E-06     698.039E-06
            5142            5358     735.566E-06     695.982E-06
            5142            5359     744.933E-06     701.830E-06
            5143            5341     716.954E-06     698.039E-06
            5143            5342     727.701E-06     706.942E-06
            5143            5359     744.933E-06     701.830E-06
            5143            5360     754.760E-06     708.239E-06
            5144            5342     727.701E-06     706.942E-06
            5144            5343     739.397E-06     716.855E-06
            5144            5360     754.760E-06     708.239E-06
            5144            5361     764.385E-06     715.127E-06
            5145            5343     739.397E-06     716.855E-06
            5145            5344     751.855E-06     727.874E-06
            5145            5361     764.385E-06     715.127E-06
            5145            5362     773.704E-06     721.728E-06
            5146            5344     751.855E-06     727.874E-06
            5146            5345     765.048E-06     739.630E-06
            5146            5362     773.704E-06     721.728E-06
            5146            5363     781.707E-06     727.410E-06
            5147            5345     765.048E-06     739.630E-06
            5147            5346     778.679E-06     752.037E-06
            5147            5363     781.707E-06     727.410E-06
            5147            5364     786.752E-06     730.275E-06
            5148            5346     778.679E-06     752.037E-06
            5148            5347     790.090E-06     762.299E-06
            5148            5364     786.752E-06     730.275E-06
            5148            5365     786.304E-06     727.328E-06
            5149            5347     790.090E-06     762.299E-06
            5149            5348     796.916E-06     767.762E-06
            5149            5365     786.304E-06     727.328E-06
            5149            5366     773.299E-06     712.417E-06
            5150            5348     796.916E-06     767.762E-06
            5150            5349     781.153E-06     753.810E-06
            5150            5366     773.299E-06     712.417E-06
            5150            5367     738.401E-06     674.392E-06
            5151            5349     781.153E-06     753.810E-06
            5151            5350     726.524E-06     700.707E-06
            5151            5367     738.401E-06     674.392E-06
            5151            5368     661.509E-06     593.026E-06
            5152             916     559.104E-06     552.825E-06
            5152             917     513.935E-06     444.354E-06
            5152            5350     726.524E-06     700.707E-06
            5152            5368     661.509E-06     593.026E-06
            5153              40     604.197E-06     755.548E-06
            5153             935     642.107E-06     736.589E-06
            5153             936     651.459E-06     738.993E-06
            5153            5351     657.279E-06     724.306E-06
            5154             934     688.610E-06     700.056E-06
            5154             935     642.107E-06     736.589E-06
            5154            5351     657.279E-06     724.306E-06
            5154            5352     673.195E-06     697.830E-06
            5155             933     704.295E-06     687.382E-06
            5155             934     688.610E-06     700.056E-06
            5155            5352     673.195E-06     697.830E-06
            5155            5353     690.392E-06     684.411E-06
            5156             932     714.945E-06     689.159E-06
            5156             933     704.295E-06     687.382E-06
            5156            5353     690.392E-06     684.411E-06
            5156            5354     701.102E-06     682.609E-06
            5157             931     723.541E-06     688.611E-06
            5157             932     714.945E-06     689.159E-06
            5157            5354     701.102E-06     682.609E-06
            5157            5355     709.399E-06     683.890E-06
            5158             930     732.491E-06     691.960E-06
            5158             931     723.541E-06     688.611E-06
            5158            5355     709.399E-06     683.890E-06
            5158            5356     717.854E-06     686.994E-06
            5159             929     741.062E-06     694.785E-06
            5159             930     732.491E-06     691.960E-06
            5159            5356     717.854E-06     686.994E-06
            5159            5357     726.314E-06     690.987E-06
            5160             928     750.241E-06     699.226E-06
            5160             929     741.062E-06     694.785E-06
            5160            5357     726.314E-06     690.987E-06
            5160            5358     735.566E-06     695.982E-06
            5161             927     759.450E-06     703.807E-06
            5161             928     750.241E-06     699.226E-06
            5161            5358     735.566E-06     695.982E-06
            5161            5359     744.933E-06     701.830E-06
            5162             926     768.639E-06     709.346E-06
            5162             927     759.450E-06     703.807E-06
            5162            5359     744.933E-06     701.830E-06
            5162            5360     754.760E-06     708.239E-06
            5163             925     777.412E-06     714.354E-06
            5163             926     768.639E-06     709.346E-06
            5163            5360     754.760E-06     708.239E-06
            5163            5361     764.385E-06     715.127E-06
            5164             924     785.005E-06     719.210E-06
            5164             925     777.412E-06     714.354E-06
            5164            5361     764.385E-06     715.127E-06
            5164            5362     773.704E-06     721.728E-06
            5165             923     790.324E-06     721.320E-06
            5165             924     785.005E-06     719.210E-06
            5165            5362     773.704E-06     721.728E-06
            5165            5363     781.707E-06     727.410E-06
            5166             922     790.833E-06     719.466E-06
            5166             923     790.324E-06     721.320E-06
            5166            5363     781.707E-06     727.410E-06
            5166            5364     786.752E-06     730.275E-06
            5167             921     783.599E-06     709.309E-06
            5167             922     790.833E-06     719.466E-06
            5167            5364     786.752E-06     730.275E-06
            5167            5365     786.304E-06     727.328E-06
            5168             920     758.937E-06     682.065E-06
            5168             921     783.599E-06     709.309E-06
            5168            5365     786.304E-06     727.328E-06
            5168            5366     773.299E-06     712.417E-06
            5169             919     714.759E-06     632.479E-06
            5169             920     758.937E-06     682.065E-06
            5169            5366     773.299E-06     712.417E-06
            5169            5367     738.401E-06     674.392E-06
            5170             918     616.488E-06     529.941E-06
            5170             919     714.759E-06     632.479E-06
            5170            5367     738.401E-06     674.392E-06
            5170            5368     661.509E-06     593.026E-06
            5171              39     480.370E-06     381.279E-06
            5171             917     513.935E-06     444.354E-06
            5171             918     616.488E-06     529.941E-06
            5171            5368     661.509E-06     593.026E-06
            5172              29     164.106E-03     168.518E-03
            5172             625     154.979E-03     159.285E-03
            5172             947     166.644E-03     171.250E-03
            5172            5369     155.008E-03     159.767E-03
            5173             624     146.219E-03     151.056E-03
            5173             625     154.979E-03     159.285E-03
            5173            5369     155.008E-03     159.767E-03
            5173            5370     145.963E-03     150.735E-03
            5174             623     138.169E-03     143.080E-03
            5174             624     146.219E-03     151.056E-03
            5174            5370     145.963E-03     150.735E-03
            5174            5371     137.239E-03     142.136E-03
            5175             622     129.867E-03     134.974E-03
            5175             623     138.169E-03     143.080E-03
            5175            5371     137.239E-03     142.136E-03
            5175            5372     128.814E-03     133.762E-03
            5176             621     121.621E-03     126.666E-03
            5176             622     129.867E-03     134.974E-03
            5176            5372     128.814E-03     133.762E-03
            5176            5373     120.352E-03     125.300E-03
            5177             620     113.153E-03     118.198E-03
            5177             621     121.621E-03     126.666E-03
            5177            5373     120.352E-03     125.300E-03
            5177            5374     111.854E-03     116.792E-03
            5178             619     104.640E-03     109.591E-03
            5178             620     113.153E-03     118.198E-03
            5178            5374     111.854E-03     116.792E-03
            5178            5375     103.291E-03     108.184E-03
            5179             618     95.9922E-03     100.898E-03
            5179             619     104.640E-03     109.591E-03
            5179            5375     103.291E-03     108.184E-03
            5179            5376     94.6706E-03     99.5310E-03
            5180             617     87.3149E-03     92.1343E-03
            5180             618     95.9922E-03     100.898E-03
            5180            5376     94.6706E-03     99.5310E-03
            5180            5377     86.0101E-03     90.8203E-03
            5181             616     78.5696E-03     83.3355E-03
            5181             617     87.3149E-03     92.1343E-03
            5181            5377     86.0101E-03     90.8203E-03
            5181            5378     77.3142E-03     82.0880E-03
            5182             615     69.8170E-03     74.5107E-03
            5182             616     78.5696E-03     83.3355E-03
            5182            5378     77.3142E-03     82.0880E-03
            5182            5379     68.6013E-03     73.3309E-03
            5183             614     61.0418E-03     65.6882E-03
            5183             615     69.8170E-03     74.5107E-03
            5183            5379     68.6013E-03     73.3309E-03
            5183            5380     59.8739E-03     64.5700E-03
            5184             613     52.2845E-03     56.8757E-03
            5184             614     61.0418E-03     65.6882E-03
            5184            5380     59.8739E-03     64.5700E-03
            5184            5381     51.1576E-03     55.8081E-03
            5185             612     43.5622E-03     48.1024E-03
            5185             613     52.2845E-03     56.8757E-03
            5185            5381     51.1576E-03     55.8081E-03
            5185            5382     42.4571E-03     47.0496E-03
            5186             611     34.9635E-03     39.3570E-03
            5186             612     43.5622E-03     48.1024E-03
            5186            5382     42.4571E-03     47.0496E-03
            5186            5383     33.8296E-03     38.3221E-03
            5187             610     26.6181E-03     30.6606E-03
            5187             611     34.9635E-03     39.3570E-03
            5187            5383     33.8296E-03     38.3221E-03
            5187            5384     25.3571E-03     29.5606E-03
            5188             609     18.8319E-03     22.1626E-03
            5188             610     26.6181E-03     30.6606E-03
            5188            5384     25.3571E-03     29.5606E-03
            5188            5385     17.1599E-03     20.9609E-03
            5189             608     11.9976E-03     14.9161E-03
            5189             609     18.8319E-03     22.1626E-03
            5189            5385     17.1599E-03     20.9609E-03
            5189            5386     9.41248E-03     13.7413E-03
            5190              30     8.86073E-03     11.8484E-03
            5190             608     11.9976E-03     14.9161E-03
            5190             720     5.66481E-03     10.7062E-03
            5190            5386     9.41248E-03     13.7413E-03
            5191             946     172.291E-03     176.178E-03
            5191             947     166.644E-03     171.250E-03
            5191            5369     155.008E-03     159.767E-03
            5191            5387     159.526E-03     164.059E-03
            5192            5369     155.008E-03     159.767E-03
            5192            5370     145.963E-03     150.735E-03
            5192            5387     159.526E-03     164.059E-03
            5192            5388     149.582E-03     153.870E-03
            5193            5370     145.963E-03     150.735E-03
            5193            5371     137.239E-03     142.136E-03
            5193            5388     149.582E-03     153.870E-03
            5193            5389     140.237E-03     144.306E-03
            5194            5371     137.239E-03     142.136E-03
            5194            5372     128.814E-03     133.762E-03
            5194            5389     140.237E-03     144.306E-03
            5194            5390     131.196E-03     135.140E-03
            5195            5372     128.814E-03     133.762E-03
            5195            5373     120.352E-03     125.300E-03
            5195            5390     131.196E-03     135.140E-03
            5195            5391     122.258E-03     126.134E-03
            5196            5373     120.352E-03     125.300E-03
            5196            5374     111.854E-03     116.792E-03
            5196            5391     122.258E-03     126.134E-03
            5196            5392     113.356E-03     117.195E-03
            5197            5374     111.854E-03     116.792E-03
            5197            5375     103.291E-03     108.184E-03
            5197            5392     113.356E-03     117.195E-03
            5197            5393     104.476E-03     108.300E-03
            5198            5375     103.291E-03     108.184E-03
            5198            5376     94.6706E-03     99.5310E-03
            5198            5393     104.476E-03     108.300E-03
            5198            5394     95.6095E-03     99.4093E-03
            5199            5376     94.6706E-03     99.5310E-03
            5199            5377     86.0101E-03     90.8203E-03
            5199            5394     95.6095E-03     99.4093E-03
            5199            5395     86.7505E-03     90.5362E-03
            5200            5377     86.0101E-03     90.8203E-03
            5200            5378     77.3142E-03     82.0880E-03
            5200            5395     86.7505E-03     90.5362E-03
            5200            5396     77.9017E-03     81.6604E-03
            5201            5378     77.3142E-03     82.0880E-03
            5201            5379     68.6013E-03     73.3309E-03
            5201            5396     77.9017E-03     81.6604E-03
            5201            5397     69.0586E-03     72.7929E-03
            5202            5379     68.6013E-03     73.3309E-03
            5202            5380     59.8739E-03     64.5700E-03
            5202            5397     69.0586E-03     72.7929E-03
            5202            5398     60.2257E-03     63.9196E-03
            5203            5380     59.8739E-03     64.5700E-03
            5203            5381     51.1576E-03     55.8081E-03
            5203            5398     60.2257E-03     63.9196E-03
            5203            5399     51.4017E-03     55.0544E-03
            5204            5381     51.1576E-03     55.8081E-03
            5204            5382     42.4571E-03     47.0496E-03
            5204            5399     51.4017E-03     55.0544E-03
            5204            5400     42.5817E-03     46.1871E-03
            5205            5382     42.4571E-03     47.0496E-03
            5205            5383     33.8296E-03     38.3221E-03
            5205            5400     42.5817E-03     46.1871E-03
            5205            5401     33.7532E-03     37.3702E-03
            5206            5383     33.8296E-03     38.3221E-03
            5206            5384     25.3571E-03     29.5606E-03
            5206            5401     33.7532E-03     37.3702E-03
            5206            5402     24.9151E-03     28.6345E-03
            5207            5384     25.3571E-03     29.5606E-03
            5207            5385     17.1599E-03     20.9609E-03
            5207            5402     24.9151E-03     28.6345E-03
            5207            5403     16.0569E-03     20.0223E-03
            5208            5385     17.1599E-03     20.9609E-03
            5208            5386     9.41248E-03     13.7413E-03
            5208            5403     16.0569E-03     20.0223E-03
            5208            5404     7.40232E-03     12.3475E-03
            5209             719     3.18435E-03     8.92951E-03
            5209             720     5.66481E-03     10.7062E-03
            5209            5386     9.41248E-03     13.7413E-03
            5209            5404     7.40232E-03     12.3475E-03
            5210             945     172.062E-03     175.569E-03
            5210             946     172.291E-03     176.178E-03
            5210            5387     159.526E-03     164.059E-03
            5210            5405     161.780E-03     165.213E-03
            5211            5387     159.526E-03     164.059E-03
            5211            5388     149.582E-03     153.870E-03
            5211            5405     161.780E-03     165.213E-03
            5211            5406     151.311E-03     154.720E-03
            5212            5388     149.582E-03     153.870E-03
            5212            5389     140.237E-03     144.306E-03
            5212            5406     151.311E-03     154.720E-03
            5212            5407     141.893E-03     144.939E-03
            5213            5389     140.237E-03     144.306E-03
            5213            5390     131.196E-03     135.140E-03
            5213            5407     141.893E-03     144.939E-03
            5213            5408     132.573E-03     135.446E-03
            5214            5390     131.196E-03     135.140E-03
            5214            5391     122.258E-03     126.134E-03
            5214            5408     132.573E-03     135.446E-03
            5214            5409     123.447E-03     126.229E-03
            5215            5391     122.258E-03     126.134E-03
            5215            5392     113.356E-03     117.195E-03
            5215            5409     123.447E-03     126.229E-03
            5215            5410     114.391E-03     117.145E-03
            5216            5392     113.356E-03     117.195E-03
            5216            5393     104.476E-03     108.300E-03
            5216            5410     114.391E-03     117.145E-03
            5216            5411     105.405E-03     108.146E-03
            5217            5393     104.476E-03     108.300E-03
            5217            5394     95.6095E-03     99.4093E-03
            5217            5411     105.405E-03     108.146E-03
            5217            5412     96.4610E-03     99.2067E-03
            5218            5394     95.6095E-03     99.4093E-03
            5218            5395     86.7505E-03     90.5362E-03
            5218            5412     96.4610E-03     99.2067E-03
            5218            5413     87.5556E-03     90.2957E-03
            5219            5395     86.7505E-03     90.5362E-03
            5219            5396     77.9017E-03     81.6604E-03
            5219            5413     87.5556E-03     90.2957E-03
            5219            5414     78.6750E-03     81.4124E-03
            5220            5396     77.9017E-03     81.6604E-03
            5220            5397     69.0586E-03     72.7929E-03
            5220            5414     78.6750E-03     81.4124E-03
            5220            5415     69.8207E-03     72.5392E-03
            5221            5397     69.0586E-03     72.7929E-03
            5221            5398     60.2257E-03     63.9196E-03
            5221            5415     69.8207E-03     72.5392E-03
            5221            5416     60.9904E-03     63.6828E-03
            5222            5398     60.2257E-03     63.9196E-03
            5222            5399     51.4017E-03     55.0544E-03
            5222            5416     60.9904E-03     63.6828E-03
            5222            5417     52.1787E-03     54.8332E-03
            5223            5399     51.4017E-03     55.0544E-03
            5223            5400     42.5817E-03     46.1871E-03
            5223            5417     52.1787E-03     54.8332E-03
            5223            5418     43.3923E-03     46.0269E-03
            5224            5400     42.5817E-03     46.1871E-03
            5224            5401     33.7532E-03     37.3702E-03
            5224            5418     43.3923E-03     46.0269E-03
            5224            5419     34.6011E-03     37.2745E-03
            5225            5401     33.7532E-03     37.3702E-03
            5225            5402     24.9151E-03     28.6345E-03
            5225            5419     34.6011E-03     37.2745E-03
            5225            5420     25.7404E-03     28.8222E-03
            5226            5402     24.9151E-03     28.6345E-03
            5226            5403     16.0569E-03     20.0223E-03
            5226            5420     25.7404E-03     28.8222E-03
            5226            5421     17.0128E-03     20.8591E-03
            5227            5403     16.0569E-03     20.0223E-03
            5227            5404     7.40232E-03     12.3475E-03
            5227            5421     17.0128E-03     20.8591E-03
            5227            5422     9.54765E-03     12.5472E-03
            5228             718     6.36190E-03     8.11483E-03
            5228             719     3.18435E-03     8.92951E-03
            5228            5404     7.40232E-03     12.3475E-03
            5228            5422     9.54765E-03     12.5472E-03
            5229             944     167.799E-03     170.486E-03
            5229             945     172.062E-03     175.569E-03
            5229            5405     161.780E-03     165.213E-03
            5229            5423     159.715E-03     161.937E-03
            5230            5405     161.780E-03     165.213E-03
            5230            5406     151.311E-03     154.720E-03
            5230            5423     159.715E-03     161.937E-03
            5230            5424     150.833E-03     152.702E-03
            5231            5406     151.311E-03     154.720E-03
            5231            5407     141.893E-03     144.939E-03
            5231            5424     150.833E-03     152.702E-03
            5231            5425     141.667E-03     143.430E-03
            5232            5407     141.893E-03     144.939E-03
            5232            5408     132.573E-03     135.446E-03
            5232            5425     141.667E-03     143.430E-03
            5232            5426     132.691E-03     134.351E-03
            5233            5408     132.573E-03     135.446E-03
            5233            5409     123.447E-03     126.229E-03
            5233            5426     132.691E-03     134.351E-03
            5233            5427     123.720E-03     125.376E-03
            5234            5409     123.447E-03     126.229E-03
            5234            5410     114.391E-03     117.145E-03
            5234            5427     123.720E-03     125.376E-03
            5234            5428     114.839E-03     116.488E-03
            5235            5410     114.391E-03     117.145E-03
            5235            5411     105.405E-03     108.146E-03
            5235            5428     114.839E-03     116.488E-03
            5235            5429     105.982E-03     107.657E-03
            5236            5411     105.405E-03     108.146E-03
            5236            5412     96.4610E-03     99.2067E-03
            5236            5429     105.982E-03     107.657E-03
            5236            5430     97.1667E-03     98.8545E-03
            5237            5412     96.4610E-03     99.2067E-03
            5237            5413     87.5556E-03     90.2957E-03
            5237            5430     97.1667E-03     98.8545E-03
            5237            5431     88.3670E-03     90.0774E-03
            5238            5413     87.5556E-03     90.2957E-03
            5238            5414     78.6750E-03     81.4124E-03
            5238            5431     88.3670E-03     90.0774E-03
            5238            5432     79.5942E-03     81.3136E-03
            5239            5414     78.6750E-03     81.4124E-03
            5239            5415     69.8207E-03     72.5392E-03
            5239            5432     79.5942E-03     81.3136E-03
            5239            5433     70.8426E-03     72.5699E-03
            5240            5415     69.8207E-03     72.5392E-03
            5240            5416     60.9904E-03     63.6828E-03
            5240            5433     70.8426E-03     72.5699E-03
            5240            5434     62.1250E-03     63.8457E-03
            5241            5416     60.9904E-03     63.6828E-03
            5241            5417     52.1787E-03     54.8332E-03
            5241            5434     62.1250E-03     63.8457E-03
            5241            5435     53.4538E-03     55.1583E-03
            5242            5417     52.1787E-03     54.8332E-03
            5242            5418     43.3923E-03     46.0269E-03
            5242            5435     53.4538E-03     55.1583E-03
            5242            5436     44.8397E-03     46.5332E-03
            5243            5418     43.3923E-03     46.0269E-03
            5243            5419     34.6011E-03     37.2745E-03
            5243            5436     44.8397E-03     46.5332E-03
            5243            5437     36.3114E-03     38.0543E-03
            5244            5419     34.6011E-03     37.2745E-03
            5244            5420     25.7404E-03     28.8222E-03
            5244            5437     36.3114E-03     38.0543E-03
            5244            5438     27.8773E-03     29.9267E-03
            5245            5420     25.7404E-03     28.8222E-03
            5245            5421     17.0128E-03     20.8591E-03
            5245            5438     27.8773E-03     29.9267E-03
            5245            5439     19.7670E-03     22.6974E-03
            5246            5421     17.0128E-03     20.8591E-03
            5246            5422     9.54765E-03     12.5472E-03
            5246            5439     19.7670E-03     22.6974E-03
            5246            5440     13.7485E-03     16.5678E-03
            5247             717     11.6383E-03     13.7262E-03
            5247             718     6.36190E-03     8.11483E-03
            5247            5422     9.54765E-03     12.5472E-03
            5247            5440     13.7485E-03     16.5678E-03
            5248             943     161.144E-03     160.982E-03
            5248             944     167.799E-03     170.486E-03
            5248            5423     159.715E-03     161.937E-03
            5248            5441     154.821E-03     154.864E-03
            5249            5423     159.715E-03     161.937E-03
            5249            5424     150.833E-03     152.702E-03
            5249            5441     154.821E-03     154.864E-03
            5249            5442     147.692E-03     147.786E-03
            5250            5424     150.833E-03     152.702E-03
            5250            5425     141.667E-03     143.430E-03
            5250            5442     147.692E-03     147.786E-03
            5250            5443     139.744E-03     140.005E-03
            5251            5425     141.667E-03     143.430E-03
            5251            5426     132.691E-03     134.351E-03
            5251            5443     139.744E-03     140.005E-03
            5251            5444     131.526E-03     131.960E-03
            5252            5426     132.691E-03     134.351E-03
            5252            5427     123.720E-03     125.376E-03
            5252            5444     131.526E-03     131.960E-03
            5252            5445     123.209E-03     123.701E-03
            5253            5427     123.720E-03     125.376E-03
            5253            5428     114.839E-03     116.488E-03
            5253            5445     123.209E-03     123.701E-03
            5253            5446     114.776E-03     115.353E-03
            5254            5428     114.839E-03     116.488E-03
            5254            5429     105.982E-03     107.657E-03
            5254            5446     114.776E-03     115.353E-03
            5254            5447     106.313E-03     106.921E-03
            5255            5429     105.982E-03     107.657E-03
            5255            5430     97.1667E-03     98.8545E-03
            5255            5447     106.313E-03     106.921E-03
            5255            5448     97.7881E-03     98.4462E-03
            5256            5430     97.1667E-03     98.8545E-03
            5256            5431     88.3670E-03     90.0774E-03
            5256            5448     97.7881E-03     98.4462E-03
            5256            5449     89.2497E-03     89.9386E-03
            5257            5431     88.3670E-03     90.0774E-03
            5257            5432     79.5942E-03     81.3136E-03
            5257            5449     89.2497E-03     89.9386E-03
            5257            5450     80.6920E-03     81.4232E-03
            5258            5432     79.5942E-03     81.3136E-03
            5258            5433     70.8426E-03     72.5699E-03
            5258            5450     80.6920E-03     81.4232E-03
            5258            5451     72.1500E-03     72.9172E-03
            5259            5433     70.8426E-03     72.5699E-03
            5259            5434     62.1250E-03     63.8457E-03
            5259            5451     72.1500E-03     72.9172E-03
            5259            5452     63.6363E-03     64.4447E-03
            5260            5434     62.1250E-03     63.8457E-03
            5260            5435     53.4538E-03     55.1583E-03
            5260            5452     63.6363E-03     64.4447E-03
            5260            5453     55.1976E-03     56.0414E-03
            5261            5435     53.4538E-03     55.1583E-03
            5261            5436     44.8397E-03     46.5332E-03
            5261            5453     55.1976E-03     56.0414E-03
            5261            5454     46.8727E-03     47.7424E-03
            5262            5436     44.8397E-03     46.5332E-03
            5262            5437     36.3114E-03     38.0543E-03
            5262            5454     46.8727E-03     47.7424E-03
            5262            5455     38.7720E-03     39.6647E-03
            5263            5437     36.3114E-03     38.0543E-03
            5263            5438     27.8773E-03     29.9267E-03
            5263            5455     38.7720E-03     39.6647E-03
            5263            5456     31.0279E-03     31.9417E-03
            5264            5438     27.8773E-03     29.9267E-03
            5264            5439     19.7670E-03     22.6974E-03
            5264            5456     31.0279E-03     31.9417E-03
            5264            5457     23.9075E-03     25.2179E-03
            5265            5439     19.7670E-03     22.6974E-03
            5265            5440     13.7485E-03     16.5678E-03
            5265            5457     23.9075E-03     25.2179E-03
            5265            5458     18.1441E-03     21.1859E-03
            5266             716     15.7263E-03     20.1136E-03
            5266             717     11.6383E-03     13.7262E-03
            5266            5440     13.7485E-03     16.5678E-03
            5266            5458     18.1441E-03     21.1859E-03
            5267             942     151.085E-03     151.324E-03
            5267             943     161.144E-03     160.982E-03
            5267            5441     154.821E-03     154.864E-03
            5267            5459     144.715E-03     145.170E-03
            5268            5441     154.821E-03     154.864E-03
            5268            5442     147.692E-03     147.786E-03
            5268            5459     144.715E-03     145.170E-03
            5268            5460     137.578E-03     138.371E-03
            5269            5442     147.692E-03     147.786E-03
            5269            5443     139.744E-03     140.005E-03
            5269            5460     137.578E-03     138.371E-03
            5269            5461     130.183E-03     131.145E-03
            5270            5443     139.744E-03     140.005E-03
            5270            5444     131.526E-03     131.960E-03
            5270            5461     130.183E-03     131.145E-03
            5270            5462     122.486E-03     123.592E-03
            5271            5444     131.526E-03     131.960E-03
            5271            5445     123.209E-03     123.701E-03
            5271            5462     122.486E-03     123.592E-03
            5271            5463     114.684E-03     115.843E-03
            5272            5445     123.209E-03     123.701E-03
            5272            5446     114.776E-03     115.353E-03
            5272            5463     114.684E-03     115.843E-03
            5272            5464     106.775E-03     108.003E-03
            5273            5446     114.776E-03     115.353E-03
            5273            5447     106.313E-03     106.921E-03
            5273            5464     106.775E-03     108.003E-03
            5273            5465     98.8157E-03     100.052E-03
            5274            5447     106.313E-03     106.921E-03
            5274            5448     97.7881E-03     98.4462E-03
            5274            5465     98.8157E-03     100.052E-03
            5274            5466     90.7985E-03     92.0775E-03
            5275            5448     97.7881E-03     98.4462E-03
            5275            5449     89.2497E-03     89.9386E-03
            5275            5466     90.7985E-03     92.0775E-03
            5275            5467     82.7610E-03     84.0496E-03
            5276            5449     89.2497E-03     89.9386E-03
            5276            5450     80.6920E-03     81.4232E-03
            5276            5467     82.7610E-03     84.0496E-03
            5276            5468     74.6994E-03     76.0252E-03
            5277            5450     80.6920E-03     81.4232E-03
            5277            5451     72.1500E-03     72.9172E-03
            5277            5468     74.6994E-03     76.0252E-03
            5277            5469     66.6434E-03     67.9900E-03
            5278            5451     72.1500E-03     72.9172E-03
            5278            5452     63.6363E-03     64.4447E-03
            5278            5469     66.6434E-03     67.9900E-03
            5278            5470     58.5989E-03     59.9865E-03
            5279            5452     63.6363E-03     64.4447E-03
            5279            5453     55.1976E-03     56.0414E-03
            5279            5470     58.5989E-03     59.9865E-03
            5279            5471     50.5980E-03     52.0171E-03
            5280            5453     55.1976E-03     56.0414E-03
            5280            5454     46.8727E-03     47.7424E-03
            5280            5471     50.5980E-03     52.0171E-03
            5280            5472     42.6721E-03     44.1255E-03
            5281            5454     46.8727E-03     47.7424E-03
            5281            5455     38.7720E-03     39.6647E-03
            5281            5472     42.6721E-03     44.1255E-03
            5281            5473     34.8972E-03     36.3486E-03
            5282            5455     38.7720E-03     39.6647E-03
            5282            5456     31.0279E-03     31.9417E-03
            5282            5473     34.8972E-03     36.3486E-03
            5282            5474     27.3672E-03     28.7525E-03
            5283            5456     31.0279E-03     31.9417E-03
            5283            5457     23.9075E-03     25.2179E-03
            5283            5474     27.3672E-03     28.7525E-03
            5283            5475     20.2817E-03     21.6911E-03
            5284            5457     23.9075E-03     25.2179E-03
            5284            5458     18.1441E-03     21.1859E-03
            5284            5475     20.2817E-03     21.6911E-03
            5284            5476     13.5404E-03     15.8500E-03
            5285             715     10.1892E-03     13.3288E-03
            5285             716     15.7263E-03     20.1136E-03
            5285            5458     18.1441E-03     21.1859E-03
            5285            5476     13.5404E-03     15.8500E-03
            5286              35     140.337E-03     143.367E-03
            5286             824     130.858E-03     133.532E-03
            5286             942     151.085E-03     151.324E-03
            5286            5459     144.715E-03     145.170E-03
            5287             824     130.858E-03     133.532E-03
            5287             825     122.271E-03     125.062E-03
            5287            5459     144.715E-03     145.170E-03
            5287            5460     137.578E-03     138.371E-03
            5288             825     122.271E-03     125.062E-03
            5288             826     114.495E-03     117.366E-03
            5288            5460     137.578E-03     138.371E-03
            5288            5461     130.183E-03     131.145E-03
            5289             826     114.495E-03     117.366E-03
            5289             827     106.966E-03     110.037E-03
            5289            5461     130.183E-03     131.145E-03
            5289            5462     122.486E-03     123.592E-03
            5290             827     106.966E-03     110.037E-03
            5290             828     99.7003E-03     102.870E-03
            5290            5462     122.486E-03     123.592E-03
            5290            5463     114.684E-03     115.843E-03
            5291             828     99.7003E-03     102.870E-03
            5291             829     92.4980E-03     95.7886E-03
            5291            5463     114.684E-03     115.843E-03
            5291            5464     106.775E-03     108.003E-03
            5292             829     92.4980E-03     95.7886E-03
            5292             830     85.3758E-03     88.7186E-03
            5292            5464     106.775E-03     108.003E-03
            5292            5465     98.8157E-03     100.052E-03
            5293             830     85.3758E-03     88.7186E-03
            5293             831     78.2538E-03     81.6505E-03
            5293            5465     98.8157E-03     100.052E-03
            5293            5466     90.7985E-03     92.0775E-03
            5294             831     78.2538E-03     81.6505E-03
            5294             832     71.1476E-03     74.5589E-03
            5294            5466     90.7985E-03     92.0775E-03
            5294            5467     82.7610E-03     84.0496E-03
            5295             832     71.1476E-03     74.5589E-03
            5295             833     64.0273E-03     67.4510E-03
            5295            5467     82.7610E-03     84.0496E-03
            5295            5468     74.6994E-03     76.0252E-03
            5296             833     64.0273E-03     67.4510E-03
            5296             834     56.9103E-03     60.3191E-03
            5296            5468     74.6994E-03     76.0252E-03
            5296            5469     66.6434E-03     67.9900E-03
            5297             834     56.9103E-03     60.3191E-03
            5297             835     49.7916E-03     53.1724E-03
            5297            5469     66.6434E-03     67.9900E-03
            5297            5470     58.5989E-03     59.9865E-03
            5298             835     49.7916E-03     53.1724E-03
            5298             836     42.6972E-03     46.0105E-03
            5298            5470     58.5989E-03     59.9865E-03
            5298            5471     50.5980E-03     52.0171E-03
            5299             836     42.6972E-03     46.0105E-03
            5299             837     35.6401E-03     38.8436E-03
            5299            5471     50.5980E-03     52.0171E-03
            5299            5472     42.6721E-03     44.1255E-03
            5300             837     35.6401E-03     38.8436E-03
            5300             838     28.6733E-03     31.6868E-03
            5300            5472     42.6721E-03     44.1255E-03
            5300            5473     34.8972E-03     36.3486E-03
            5301             838     28.6733E-03     31.6868E-03
            5301             839     21.8571E-03     24.5716E-03
            5301            5473     34.8972E-03     36.3486E-03
            5301            5474     27.3672E-03     28.7525E-03
            5302             839     21.8571E-03     24.5716E-03
            5302             840     15.3331E-03     17.6579E-03
            5302            5474     27.3672E-03     28.7525E-03
            5302            5475     20.2817E-03     21.6911E-03
            5303             840     15.3331E-03     17.6579E-03
            5303             841     9.18624E-03     11.5301E-03
            5303            5475     20.2817E-03     21.6911E-03
            5303            5476     13.5404E-03     15.8500E-03
            5304              33     6.20063E-03     8.77959E-03
            5304             715     10.1892E-03     13.3288E-03
            5304             841     9.18624E-03     11.5301E-03
            5304            5476     13.5404E-03     15.8500E-03
            5305              27     194.601E-03     213.578E-03
            5305             565     180.086E-03     187.896E-03
            5305             742     203.016E-03     200.819E-03
            5305            5477     184.280E-03     187.545E-03
            5306              29     164.106E-03     168.518E-03
            5306             565     180.086E-03     187.896E-03
            5306             947     166.644E-03     171.250E-03
            5306            5477     184.280E-03     187.545E-03
            5307             741     195.408E-03     189.024E-03
            5307             742     203.016E-03     200.819E-03
            5307            5477     184.280E-03     187.545E-03
            5307            5478     185.322E-03     186.908E-03
            5308             946     172.291E-03     176.178E-03
            5308             947     166.644E-03     171.250E-03
            5308            5477     184.280E-03     187.545E-03
            5308            5478     185.322E-03     186.908E-03
            5309             740     179.895E-03     187.268E-03
            5309             741     195.408E-03     189.024E-03
            5309            5478     185.322E-03     186.908E-03
            5309            5479     180.041E-03     184.252E-03
            5310             945     172.062E-03     175.569E-03
            5310             946     172.291E-03     176.178E-03
            5310            5478     185.322E-03     186.908E-03
            5310            5479     180.041E-03     184.252E-03
            5311             739     178.779E-03     173.159E-03
            5311             740     179.895E-03     187.268E-03
            5311            5479     180.041E-03     184.252E-03
            5311            5480     174.414E-03     175.941E-03
            5312             944     167.799E-03     170.486E-03
            5312             945     172.062E-03     175.569E-03
            5312            5479     180.041E-03     184.252E-03
            5312            5480     174.414E-03     175.941E-03
            5313             738     170.836E-03     166.704E-03
            5313             739     178.779E-03     173.159E-03
            5313            5480     174.414E-03     175.941E-03
            5313            5481     165.712E-03     165.069E-03
            5314             943     161.144E-03     160.982E-03
            5314             944     167.799E-03     170.486E-03
            5314            5480     174.414E-03     175.941E-03
            5314            5481     165.712E-03     165.069E-03
            5315             737     159.742E-03     164.306E-03
            5315             738     170.836E-03     166.704E-03
            5315            5481     165.712E-03     165.069E-03
            5315            5482     156.598E-03     157.389E-03
            5316             942     151.085E-03     151.324E-03
            5316             943     161.144E-03     160.982E-03
            5316            5481     165.712E-03     165.069E-03
            5316            5482     156.598E-03     157.389E-03
            5317              34     166.621E-03     176.977E-03
            5317             737     159.742E-03     164.306E-03
            5317             788     154.326E-03     159.355E-03
            5317            5482     156.598E-03     157.389E-03
            5318              35     140.337E-03     143.367E-03
            5318             788     154.326E-03     159.355E-03
            5318             942     151.085E-03     151.324E-03
            5318            5482     156.598E-03     157.389E-03
            5319              38     6.20296E-03     4.36397E-03
            5319             912     872.842E-06     958.717E-06
            5319             948     5.22990E-03     5.83712E-03
            5319            5483     1.15301E-03     1.22741E-03
            5320              15     4.95143E-03     8.73621E-03
            5320             948     5.22990E-03     5.83712E-03
            5320             949     1.49944E-03     1.52629E-03
            5320            5483     1.15301E-03     1.22741E-03
            5321             912     872.842E-06     958.717E-06
            5321             913     867.506E-06     905.706E-06
            5321            5483     1.15301E-03     1.22741E-03
            5321            5484     986.161E-06     993.347E-06
            5322             949     1.49944E-03     1.52629E-03
            5322             950     1.17882E-03     1.13595E-03
            5322            5483     1.15301E-03     1.22741E-03
            5322            5484     986.161E-06     993.347E-06
            5323             913     867.506E-06     905.706E-06
            5323             914     750.930E-06     786.064E-06
            5323            5484     986.161E-06     993.347E-06
            5323            5485     733.726E-06     762.202E-06
            5324             950     1.17882E-03     1.13595E-03
            5324             951     804.386E-06     858.428E-06
            5324            5484     986.161E-06     993.347E-06
            5324            5485     733.726E-06     762.202E-06
            5325             914     750.930E-06     786.064E-06
            5325             915     621.540E-06     656.864E-06
            5325            5485     733.726E-06     762.202E-06
            5325            5486     515.911E-06     522.168E-06
            5326             951     804.386E-06     858.428E-06
            5326             952     565.285E-06     538.913E-06
            5326            5485     733.726E-06     762.202E-06
            5326            5486     515.911E-06     522.168E-06
            5327             915     621.540E-06     656.864E-06
            5327             916     559.104E-06     552.825E-06
            5327            5486     515.911E-06     522.168E-06
            5327            5487     351.468E-06     343.879E-06
            5328             952     565.285E-06     538.913E-06
            5328             953     362.567E-06     348.872E-06
            5328            5486     515.911E-06     522.168E-06
            5328            5487     351.468E-06     343.879E-06
            5329             916     559.104E-06     552.825E-06
            5329             917     513.935E-06     444.354E-06
            5329            5487     351.468E-06     343.879E-06
            5329            5488     327.926E-06     340.291E-06
            5330             953     362.567E-06     348.872E-06
            5330             954     344.888E-06     439.307E-06
            5330            5487     351.468E-06     343.879E-06
            5330            5488     327.926E-06     340.291E-06
            5331              39     480.370E-06     381.279E-06
            5331             917     513.935E-06     444.354E-06
            5331             955     356.110E-06     403.533E-06
            5331            5488     327.926E-06     340.291E-06
            5332              41     387.561E-06     595.394E-06
            5332             954     344.888E-06     439.307E-06
            5332             955     356.110E-06     403.533E-06
            5332            5488     327.926E-06     340.291E-06
            5333               9     38.9445E-03     38.3878E-03
            5333             178     39.4505E-03     41.9388E-03
            5333             749     52.9100E-03     54.7428E-03
            5333            5489     53.3103E-03     56.8295E-03
            5334             177     45.8816E-03     47.7698E-03
            5334             178     39.4505E-03     41.9388E-03
            5334            5489     53.3103E-03     56.8295E-03
            5334            5490     61.3553E-03     61.2272E-03
            5335             176     46.7477E-03     45.9161E-03
            5335             177     45.8816E-03     47.7698E-03
            5335            5490     61.3553E-03     61.2272E-03
            5335            5491     64.1853E-03     61.9843E-03
            5336             175     45.2512E-03     47.0277E-03
            5336             176     46.7477E-03     45.9161E-03
            5336            5491     64.1853E-03     61.9843E-03
            5336            5492     61.7595E-03     66.7093E-03
            5337             174     46.9926E-03     46.9472E-03
            5337             175     45.2512E-03     47.0277E-03
            5337            5492     61.7595E-03     66.7093E-03
            5337            5493     66.5135E-03     65.4184E-03
            5338             173     46.8436E-03     43.9759E-03
            5338             174     46.9926E-03     46.9472E-03
            5338            5493     66.5135E-03     65.4184E-03
            5338            5494     65.1241E-03     62.5018E-03
            5339               7     38.1984E-03     37.5362E-03
            5339             173     46.8436E-03     43.9759E-03
            5339             557     54.5353E-03     59.7553E-03
            5339            5494     65.1241E-03     62.5018E-03
            5340             749     52.9100E-03     54.7428E-03
            5340             750     82.6900E-03     90.0935E-03
            5340            5489     53.3103E-03     56.8295E-03
            5340            5495     82.4344E-03     88.5770E-03
            5341            5489     53.3103E-03     56.8295E-03
            5341            5490     61.3553E-03     61.2272E-03
            5341            5495     82.4344E-03     88.5770E-03
            5341            5496     94.2072E-03     91.3193E-03
            5342            5490     61.3553E-03     61.2272E-03
            5342            5491     64.1853E-03     61.9843E-03
            5342            5496     94.2072E-03     91.3193E-03
            5342            5497     101.252E-03     96.2002E-03
            5343            5491     64.1853E-03     61.9843E-03
            5343            5492     61.7595E-03     66.7093E-03
            5343            5497     101.252E-03     96.2002E-03
            5343            5498     96.9146E-03     105.934E-03
            5344            5492     61.7595E-03     66.7093E-03
            5344            5493     66.5135E-03     65.4184E-03
            5344            5498     96.9146E-03     105.934E-03
            5344            5499     108.462E-03     102.491E-03
            5345            5493     66.5135E-03     65.4184E-03
            5345            5494     65.1241E-03     62.5018E-03
            5345            5499     108.462E-03     102.491E-03
            5345            5500     104.751E-03     100.790E-03
            5346             556     88.1850E-03     103.609E-03
            5346             557     54.5353E-03     59.7553E-03
            5346            5494     65.1241E-03     62.5018E-03
            5346            5500     104.751E-03     100.790E-03
            5347             750     82.6900E-03     90.0935E-03
            5347             751     112.482E-03     127.838E-03
            5347            5495     82.4344E-03     88.5770E-03
            5347            5501     111.219E-03     123.057E-03
            5348            5495     82.4344E-03     88.5770E-03
            5348            5496     94.2072E-03     91.3193E-03
            5348            5501     111.219E-03     123.057E-03
            5348            5502     128.105E-03     124.313E-03
            5349            5496     94.2072E-03     91.3193E-03
            5349            5497     101.252E-03     96.2002E-03
            5349            5502     128.105E-03     124.313E-03
            5349            5503     136.860E-03     127.508E-03
            5350            5497     101.252E-03     96.2002E-03
            5350            5498     96.9146E-03     105.934E-03
            5350            5503     136.860E-03     127.508E-03
            5350            5504     127.780E-03     140.535E-03
            5351            5498     96.9146E-03     105.934E-03
            5351            5499     108.462E-03     102.491E-03
            5351            5504     127.780E-03     140.535E-03
            5351            5505     147.638E-03     134.150E-03
            5352            5499     108.462E-03     102.491E-03
            5352            5500     104.751E-03     100.790E-03
            5352            5505     147.638E-03     134.150E-03
            5352            5506     144.162E-03     138.069E-03
            5353             555     121.008E-03     149.445E-03
            5353             556     88.1850E-03     103.609E-03
            5353            5500     104.751E-03     100.790E-03
            5353            5506     144.162E-03     138.069E-03
            5354             751     112.482E-03     127.838E-03
            5354             752     136.263E-03     158.996E-03
            5354            5501     111.219E-03     123.057E-03
            5354            5507     135.661E-03     152.908E-03
            5355            5501     111.219E-03     123.057E-03
            5355            5502     128.105E-03     124.313E-03
            5355            5507     135.661E-03     152.908E-03
            5355            5508     156.046E-03     154.235E-03
            5356            5502     128.105E-03     124.313E-03
            5356            5503     136.860E-03     127.508E-03
            5356            5508     156.046E-03     154.235E-03
            5356            5509     162.020E-03     152.711E-03
            5357            5503     136.860E-03     127.508E-03
            5357            5504     127.780E-03     140.535E-03
            5357            5509     162.020E-03     152.711E-03
            5357            5510     146.956E-03     167.947E-03
            5358            5504     127.780E-03     140.535E-03
            5358            5505     147.638E-03     134.150E-03
            5358            5510     146.956E-03     167.947E-03
            5358            5511     175.293E-03     162.194E-03
            5359            5505     147.638E-03     134.150E-03
            5359            5506     144.162E-03     138.069E-03
            5359            5511     175.293E-03     162.194E-03
            5359            5512     175.190E-03     172.521E-03
            5360             554     147.118E-03     191.118E-03
            5360             555     121.008E-03     149.445E-03
            5360            5506     144.162E-03     138.069E-03
            5360            5512     175.190E-03     172.521E-03
            5361             752     136.263E-03     158.996E-03
            5361             753     157.866E-03     177.689E-03
            5361            5507     135.661E-03     152.908E-03
            5361            5513     153.361E-03     166.621E-03
            5362            5507     135.661E-03     152.908E-03
            5362            5508     156.046E-03     154.235E-03
            5362            5513     153.361E-03     166.621E-03
            5362            5514     170.932E-03     167.473E-03
            5363            5508     156.046E-03     154.235E-03
            5363            5509     162.020E-03     152.711E-03
            5363            5514     170.932E-03     167.473E-03
            5363            5515     175.833E-03     166.843E-03
            5364            5509     162.020E-03     152.711E-03
            5364            5510     146.956E-03     167.947E-03
            5364            5515     175.833E-03     166.843E-03
            5364            5516     165.081E-03     183.358E-03
            5365            5510     146.956E-03     167.947E-03
            5365            5511     175.293E-03     162.194E-03
            5365            5516     165.081E-03     183.358E-03
            5365            5517     193.137E-03     182.210E-03
            5366            5511     175.293E-03     162.194E-03
            5366            5512     175.190E-03     172.521E-03
            5366            5517     193.137E-03     182.210E-03
            5366            5518     199.691E-03     197.100E-03
            5367             553     177.450E-03     216.737E-03
            5367             554     147.118E-03     191.118E-03
            5367            5512     175.190E-03     172.521E-03
            5367            5518     199.691E-03     197.100E-03
            5368              34     166.621E-03     176.977E-03
            5368             737     159.742E-03     164.306E-03
            5368             753     157.866E-03     177.689E-03
            5368            5513     153.361E-03     166.621E-03
            5369             737     159.742E-03     164.306E-03
            5369             738     170.836E-03     166.704E-03
            5369            5513     153.361E-03     166.621E-03
            5369            5514     170.932E-03     167.473E-03
            5370             738     170.836E-03     166.704E-03
            5370             739     178.779E-03     173.159E-03
            5370            5514     170.932E-03     167.473E-03
            5370            5515     175.833E-03     166.843E-03
            5371             739     178.779E-03     173.159E-03
            5371             740     179.895E-03     187.268E-03
            5371            5515     175.833E-03     166.843E-03
            5371            5516     165.081E-03     183.358E-03
            5372             740     179.895E-03     187.268E-03
            5372             741     195.408E-03     189.024E-03
            5372            5516     165.081E-03     183.358E-03
            5372            5517     193.137E-03     182.210E-03
            5373             741     195.408E-03     189.024E-03
            5373             742     203.016E-03     200.819E-03
            5373            5517     193.137E-03     182.210E-03
            5373            5518     199.691E-03     197.100E-03
            5374              27     194.601E-03     213.578E-03
            5374             553     177.450E-03     216.737E-03
            5374             742     203.016E-03     200.819E-03
            5374            5518     199.691E-03     197.100E-03
            5431              36     6.20296E-03     4.36397E-03
            5431             893     7.20516E-03     5.52634E-03
            5431             993     872.842E-06     958.717E-06
            5431            5561     765.902E-06     853.194E-06
            5432             892     7.53707E-03     5.85156E-03
            5432             893     7.20516E-03     5.52634E-03
            5432            5561     765.902E-06     853.194E-06
            5432            5562     735.783E-06     818.985E-06
            5433             891     7.30409E-03     5.77683E-03
            5433             892     7.53707E-03     5.85156E-03
            5433            5562     735.783E-06     818.985E-06
            5433            5563     715.815E-06     797.343E-06
            5434             890     7.21910E-03     5.76748E-03
            5434             891     7.30409E-03     5.77683E-03
            5434            5563     715.815E-06     797.343E-06
            5434            5564     702.559E-06     782.160E-06
            5435             889     7.03820E-03     5.66143E-03
            5435             890     7.21910E-03     5.76748E-03
            5435            5564     702.559E-06     782.160E-06
            5435            5565     687.237E-06     765.386E-06
            5436             888     6.91014E-03     5.61432E-03
            5436             889     7.03820E-03     5.66143E-03
            5436            5565     687.237E-06     765.386E-06
            5436            5566     672.032E-06     749.141E-06
            5437             887     6.75127E-03     5.53678E-03
            5437             888     6.91014E-03     5.61432E-03
            5437            5566     672.032E-06     749.141E-06
            5437            5567     656.938E-06     732.214E-06
            5438             886     6.61352E-03     5.48496E-03
            5438             887     6.75127E-03     5.53678E-03
            5438            5567     656.938E-06     732.214E-06
            5438            5568     642.581E-06     716.028E-06
            5439             885     6.46828E-03     5.42830E-03
            5439             886     6.61352E-03     5.48496E-03
            5439            5568     642.581E-06     716.028E-06
            5439            5569     629.709E-06     700.245E-06
            5440             884     6.33479E-03     5.38764E-03
            5440             885     6.46828E-03     5.42830E-03
            5440            5569     629.709E-06     700.245E-06
            5440            5570     618.190E-06     685.556E-06
            5441             883     6.20347E-03     5.35176E-03
            5441             884     6.33479E-03     5.38764E-03
            5441            5570     618.190E-06     685.556E-06
            5441            5571     608.590E-06     671.732E-06
            5442             882     6.08115E-03     5.32935E-03
            5442             883     6.20347E-03     5.35176E-03
            5442            5571     608.590E-06     671.732E-06
            5442            5572     600.558E-06     658.987E-06
            5443             881     5.96558E-03     5.31400E-03
            5443             882     6.08115E-03     5.32935E-03
            5443            5572     600.558E-06     658.987E-06
            5443            5573     594.626E-06     647.249E-06
            5444             880     5.85977E-03     5.30996E-03
            5444             881     5.96558E-03     5.31400E-03
            5444            5573     594.626E-06     647.249E-06
            5444            5574     590.158E-06     636.276E-06
            5445             879     5.75083E-03     5.33053E-03
            5445             880     5.85977E-03     5.30996E-03
            5445            5574     590.158E-06     636.276E-06
            5445            5575     587.230E-06     626.438E-06
            5446             878     5.67995E-03     5.31765E-03
            5446             879     5.75083E-03     5.33053E-03
            5446            5575     587.230E-06     626.438E-06
            5446            5576     583.352E-06     619.080E-06
            5447             877     5.55472E-03     5.33568E-03
            5447             878     5.67995E-03     5.31765E-03
            5447            5576     583.352E-06     619.080E-06
            5447            5577     575.291E-06     620.661E-06
            5448             876     5.15113E-03     5.60058E-03
            5448             877     5.55472E-03     5.33568E-03
            5448            5577     575.291E-06     620.661E-06
            5448            5578     569.519E-06     631.032E-06
            5449              37     4.85974E-03     5.81515E-03
            5449             876     5.15113E-03     5.60058E-03
            5449             941     568.651E-06     636.833E-06
            5449            5578     569.519E-06     631.032E-06
            5450             992     867.506E-06     905.706E-06
            5450             993     872.842E-06     958.717E-06
            5450            5561     765.902E-06     853.194E-06
            5450            5579     799.680E-06     853.585E-06
            5451            5561     765.902E-06     853.194E-06
            5451            5562     735.783E-06     818.985E-06
            5451            5579     799.680E-06     853.585E-06
            5451            5580     773.584E-06     832.805E-06
            5452            5562     735.783E-06     818.985E-06
            5452            5563     715.815E-06     797.343E-06
            5452            5580     773.584E-06     832.805E-06
            5452            5581     757.770E-06     813.843E-06
            5453            5563     715.815E-06     797.343E-06
            5453            5564     702.559E-06     782.160E-06
            5453            5581     757.770E-06     813.843E-06
            5453            5582     737.173E-06     792.622E-06
            5454            5564     702.559E-06     782.160E-06
            5454            5565     687.237E-06     765.386E-06
            5454            5582     737.173E-06     792.622E-06
            5454            5583     718.229E-06     772.747E-06
            5455            5565     687.237E-06     765.386E-06
            5455            5566     672.032E-06     749.141E-06
            5455            5583     718.229E-06     772.747E-06
            5455            5584     699.530E-06     753.205E-06
            5456            5566     672.032E-06     749.141E-06
            5456            5567     656.938E-06     732.214E-06
            5456            5584     699.530E-06     753.205E-06
            5456            5585     682.539E-06     735.345E-06
            5457            5567     656.938E-06     732.214E-06
            5457            5568     642.581E-06     716.028E-06
            5457            5585     682.539E-06     735.345E-06
            5457            5586     667.141E-06     718.556E-06
            5458            5568     642.581E-06     716.028E-06
            5458            5569     629.709E-06     700.245E-06
            5458            5586     667.141E-06     718.556E-06
            5458            5587     653.396E-06     703.273E-06
            5459            5569     629.709E-06     700.245E-06
            5459            5570     618.190E-06     685.556E-06
            5459            5587     653.396E-06     703.273E-06
            5459            5588     641.450E-06     689.170E-06
            5460            5570     618.190E-06     685.556E-06
            5460            5571     608.590E-06     671.732E-06
            5460            5588     641.450E-06     689.170E-06
            5460            5589     631.046E-06     676.386E-06
            5461            5571     608.590E-06     671.732E-06
            5461            5572     600.558E-06     658.987E-06
            5461            5589     631.046E-06     676.386E-06
            5461            5590     622.535E-06     664.868E-06
            5462            5572     600.558E-06     658.987E-06
            5462            5573     594.626E-06     647.249E-06
            5462            5590     622.535E-06     664.868E-06
            5462            5591     615.549E-06     654.481E-06
            5463            5573     594.626E-06     647.249E-06
            5463            5574     590.158E-06     636.276E-06
            5463            5591     615.549E-06     654.481E-06
            5463            5592     610.474E-06     645.759E-06
            5464            5574     590.158E-06     636.276E-06
            5464            5575     587.230E-06     626.438E-06
            5464            5592     610.474E-06     645.759E-06
            5464            5593     608.095E-06     636.989E-06
            5465            5575     587.230E-06     626.438E-06
            5465            5576     583.352E-06     619.080E-06
            5465            5593     608.095E-06     636.989E-06
            5465            5594     605.050E-06     631.088E-06
            5466            5576     583.352E-06     619.080E-06
            5466            5577     575.291E-06     620.661E-06
            5466            5594     605.050E-06     631.088E-06
            5466            5595     608.569E-06     626.316E-06
            5467            5577     575.291E-06     620.661E-06
            5467            5578     569.519E-06     631.032E-06
            5467            5595     608.569E-06     626.316E-06
            5467            5596     630.967E-06     603.833E-06
            5468             940     647.427E-06     585.361E-06
            5468             941     568.651E-06     636.833E-06
            5468            5578     569.519E-06     631.032E-06
            5468            5596     630.967E-06     603.833E-06
            5469             991     750.930E-06     786.064E-06
            5469             992     867.506E-06     905.706E-06
            5469            5579     799.680E-06     853.585E-06
            5469            5597     794.947E-06     831.959E-06
            5470            5579     799.680E-06     853.585E-06
            5470            5580     773.584E-06     832.805E-06
            5470            5597     794.947E-06     831.959E-06
            5470            5598     802.637E-06     835.319E-06
            5471            5580     773.584E-06     832.805E-06
            5471            5581     757.770E-06     813.843E-06
            5471            5598     802.637E-06     835.319E-06
            5471            5599     789.550E-06     820.602E-06
            5472            5581     757.770E-06     813.843E-06
            5472            5582     737.173E-06     792.622E-06
            5472            5599     789.550E-06     820.602E-06
            5472            5600     768.395E-06     798.105E-06
            5473            5582     737.173E-06     792.622E-06
            5473            5583     718.229E-06     772.747E-06
            5473            5600     768.395E-06     798.105E-06
            5473            5601     745.989E-06     775.505E-06
            5474            5583     718.229E-06     772.747E-06
            5474            5584     699.530E-06     753.205E-06
            5474            5601     745.989E-06     775.505E-06
            5474            5602     725.579E-06     754.639E-06
            5475            5584     699.530E-06     753.205E-06
            5475            5585     682.539E-06     735.345E-06
            5475            5602     725.579E-06     754.639E-06
            5475            5603     707.363E-06     736.066E-06
            5476            5585     682.539E-06     735.345E-06
            5476            5586     667.141E-06     718.556E-06
            5476            5603     707.363E-06     736.066E-06
            5476            5604     691.490E-06     719.713E-06
            5477            5586     667.141E-06     718.556E-06
            5477            5587     653.396E-06     703.273E-06
            5477            5604     691.490E-06     719.713E-06
            5477            5605     677.579E-06     705.154E-06
            5478            5587     653.396E-06     703.273E-06
            5478            5588     641.450E-06     689.170E-06
            5478            5605     677.579E-06     705.154E-06
            5478            5606     665.402E-06     692.248E-06
            5479            5588     641.450E-06     689.170E-06
            5479            5589     631.046E-06     676.386E-06
            5479            5606     665.402E-06     692.248E-06
            5479            5607     654.873E-06     680.767E-06
            5480            5589     631.046E-06     676.386E-06
            5480            5590     622.535E-06     664.868E-06
            5480            5607     654.873E-06     680.767E-06
            5480            5608     645.765E-06     670.699E-06
            5481            5590     622.535E-06     664.868E-06
            5481            5591     615.549E-06     654.481E-06
            5481            5608     645.765E-06     670.699E-06
            5481            5609     638.301E-06     662.184E-06
            5482            5591     615.549E-06     654.481E-06
            5482            5592     610.474E-06     645.759E-06
            5482            5609     638.301E-06     662.184E-06
            5482            5610     632.584E-06     654.927E-06
            5483            5592     610.474E-06     645.759E-06
            5483            5593     608.095E-06     636.989E-06
            5483            5610     632.584E-06     654.927E-06
            5483            5611     629.152E-06     649.417E-06
            5484            5593     608.095E-06     636.989E-06
            5484            5594     605.050E-06     631.088E-06
            5484            5611     629.152E-06     649.417E-06
            5484            5612     633.504E-06     640.317E-06
            5485            5594     605.050E-06     631.088E-06
            5485            5595     608.569E-06     626.316E-06
            5485            5612     633.504E-06     640.317E-06
            5485            5613     647.238E-06     619.250E-06
            5486            5595     608.569E-06     626.316E-06
            5486            5596     630.967E-06     603.833E-06
            5486            5613     647.238E-06     619.250E-06
            5486            5614     658.991E-06     597.519E-06
            5487             939     662.237E-06     589.747E-06
            5487             940     647.427E-06     585.361E-06
            5487            5596     630.967E-06     603.833E-06
            5487            5614     658.991E-06     597.519E-06
            5488             990     621.540E-06     656.864E-06
            5488             991     750.930E-06     786.064E-06
            5488            5597     794.947E-06     831.959E-06
            5488            5615     760.779E-06     778.384E-06
            5489            5597     794.947E-06     831.959E-06
            5489            5598     802.637E-06     835.319E-06
            5489            5615     760.779E-06     778.384E-06
            5489            5616     808.406E-06     811.996E-06
            5490            5598     802.637E-06     835.319E-06
            5490            5599     789.550E-06     820.602E-06
            5490            5616     808.406E-06     811.996E-06
            5490            5617     802.749E-06     805.629E-06
            5491            5599     789.550E-06     820.602E-06
            5491            5600     768.395E-06     798.105E-06
            5491            5617     802.749E-06     805.629E-06
            5491            5618     786.855E-06     789.007E-06
            5492            5600     768.395E-06     798.105E-06
            5492            5601     745.989E-06     775.505E-06
            5492            5618     786.855E-06     789.007E-06
            5492            5619     766.366E-06     768.701E-06
            5493            5601     745.989E-06     775.505E-06
            5493            5602     725.579E-06     754.639E-06
            5493            5619     766.366E-06     768.701E-06
            5493            5620     747.420E-06     750.132E-06
            5494            5602     725.579E-06     754.639E-06
            5494            5603     707.363E-06     736.066E-06
            5494            5620     747.420E-06     750.132E-06
            5494            5621     730.406E-06     733.447E-06
            5495            5603     707.363E-06     736.066E-06
            5495            5604     691.490E-06     719.713E-06
            5495            5621     730.406E-06     733.447E-06
            5495            5622     715.432E-06     718.931E-06
            5496            5604     691.490E-06     719.713E-06
            5496            5605     677.579E-06     705.154E-06
            5496            5622     715.432E-06     718.931E-06
            5496            5623     702.240E-06     706.215E-06
            5497            5605     677.579E-06     705.154E-06
            5497            5606     665.402E-06     692.248E-06
            5497            5623     702.240E-06     706.215E-06
            5497            5624     690.477E-06     695.025E-06
            5498            5606     665.402E-06     692.248E-06
            5498            5607     654.873E-06     680.767E-06
            5498            5624     690.477E-06     695.025E-06
            5498            5625     680.065E-06     685.252E-06
            5499            5607     654.873E-06     680.767E-06
            5499            5608     645.765E-06     670.699E-06
            5499            5625     680.065E-06     685.252E-06
            5499            5626     670.833E-06     676.811E-06
            5500            5608     645.765E-06     670.699E-06
            5500            5609     638.301E-06     662.184E-06
            5500            5626     670.833E-06     676.811E-06
            5500            5627     662.832E-06     669.921E-06
            5501            5609     638.301E-06     662.184E-06
            5501            5610     632.584E-06     654.927E-06
            5501            5627     662.832E-06     669.921E-06
            5501            5628     656.311E-06     664.423E-06
            5502            5610     632.584E-06     654.927E-06
            5502            5611     629.152E-06     649.417E-06
            5502            5628     656.311E-06     664.423E-06
            5502            5629     651.476E-06     660.767E-06
            5503            5611     629.152E-06     649.417E-06
            5503            5612     633.504E-06     640.317E-06
            5503            5629     651.476E-06     660.767E-06
            5503            5630     653.358E-06     655.000E-06
            5504            5612     633.504E-06     640.317E-06
            5504            5613     647.238E-06     619.250E-06
            5504            5630     653.358E-06     655.000E-06
            5504            5631     665.492E-06     637.809E-06
            5505            5613     647.238E-06     619.250E-06
            5505            5614     658.991E-06     597.519E-06
            5505            5631     665.492E-06     637.809E-06
            5505            5632     676.709E-06     615.424E-06
            5506             938     679.686E-06     605.652E-06
            5506             939     662.237E-06     589.747E-06
            5506            5614     658.991E-06     597.519E-06
            5506            5632     676.709E-06     615.424E-06
            5507             989     559.104E-06     552.825E-06
            5507             990     621.540E-06     656.864E-06
            5507            5615     760.779E-06     778.384E-06
            5507            5633     726.524E-06     700.707E-06
            5508            5615     760.779E-06     778.384E-06
            5508            5616     808.406E-06     811.996E-06
            5508            5633     726.524E-06     700.707E-06
            5508            5634     781.153E-06     753.810E-06
            5509            5616     808.406E-06     811.996E-06
            5509            5617     802.749E-06     805.629E-06
            5509            5634     781.153E-06     753.810E-06
            5509            5635     796.916E-06     767.762E-06
            5510            5617     802.749E-06     805.629E-06
            5510            5618     786.855E-06     789.007E-06
            5510            5635     796.916E-06     767.762E-06
            5510            5636     790.090E-06     762.299E-06
            5511            5618     786.855E-06     789.007E-06
            5511            5619     766.366E-06     768.701E-06
            5511            5636     790.090E-06     762.299E-06
            5511            5637     778.679E-06     752.037E-06
            5512            5619     766.366E-06     768.701E-06
            5512            5620     747.420E-06     750.132E-06
            5512            5637     778.679E-06     752.037E-06
            5512            5638     765.048E-06     739.630E-06
            5513            5620     747.420E-06     750.132E-06
            5513            5621     730.406E-06     733.447E-06
            5513            5638     765.048E-06     739.630E-06
            5513            5639     751.855E-06     727.874E-06
            5514            5621     730.406E-06     733.447E-06
            5514            5622     715.432E-06     718.931E-06
            5514            5639     751.855E-06     727.874E-06
            5514            5640     739.397E-06     716.855E-06
            5515            5622     715.432E-06     718.931E-06
            5515            5623     702.240E-06     706.215E-06
            5515            5640     739.397E-06     716.855E-06
            5515            5641     727.701E-06     706.942E-06
            5516            5623     702.240E-06     706.215E-06
            5516            5624     690.477E-06     695.025E-06
            5516            5641     727.701E-06     706.942E-06
            5516            5642     716.954E-06     698.039E-06
            5517            5624     690.477E-06     695.025E-06
            5517            5625     680.065E-06     685.252E-06
            5517            5642     716.954E-06     698.039E-06
            5517            5643     706.865E-06     690.203E-06
            5518            5625     680.065E-06     685.252E-06
            5518            5626     670.833E-06     676.811E-06
            5518            5643     706.865E-06     690.203E-06
            5518            5644     697.777E-06     683.532E-06
            5519            5626     670.833E-06     676.811E-06
            5519            5627     662.832E-06     669.921E-06
            5519            5644     697.777E-06     683.532E-06
            5519            5645     689.357E-06     677.932E-06
            5520            5627     662.832E-06     669.921E-06
            5520            5628     656.311E-06     664.423E-06
            5520            5645     689.357E-06     677.932E-06
            5520            5646     681.782E-06     674.202E-06
            5521            5628     656.311E-06     664.423E-06
            5521            5629     651.476E-06     660.767E-06
            5521            5646     681.782E-06     674.202E-06
            5521            5647     675.647E-06     671.025E-06
            5522            5629     651.476E-06     660.767E-06
            5522            5630     653.358E-06     655.000E-06
            5522            5647     675.647E-06     671.025E-06
            5522            5648     666.971E-06     672.721E-06
            5523            5630     653.358E-06     655.000E-06
            5523            5631     665.492E-06     637.809E-06
            5523            5648     666.971E-06     672.721E-06
            5523            5649     663.874E-06     678.113E-06
            5524            5631     665.492E-06     637.809E-06
            5524            5632     676.709E-06     615.424E-06
            5524            5649     663.874E-06     678.113E-06
            5524            5650     683.634E-06     663.046E-06
            5525             937     700.564E-06     646.348E-06
            5525             938     679.686E-06     605.652E-06
            5525            5632     676.709E-06     615.424E-06
            5525            5650     683.634E-06     663.046E-06
            5526             988     513.935E-06     444.354E-06
            5526             989     559.104E-06     552.825E-06
            5526            5633     726.524E-06     700.707E-06
            5526            5651     661.509E-06     593.026E-06
            5527            5633     726.524E-06     700.707E-06
            5527            5634     781.153E-06     753.810E-06
            5527            5651     661.509E-06     593.026E-06
            5527            5652     738.401E-06     674.392E-06
            5528            5634     781.153E-06     753.810E-06
            5528            5635     796.916E-06     767.762E-06
            5528            5652     738.401E-06     674.392E-06
            5528            5653     773.299E-06     712.417E-06
            5529            5635     796.916E-06     767.762E-06
            5529            5636     790.090E-06     762.299E-06
            5529            5653     773.299E-06     712.417E-06
            5529            5654     786.304E-06     727.328E-06
            5530            5636     790.090E-06     762.299E-06
            5530            5637     778.679E-06     752.037E-06
            5530            5654     786.304E-06     727.328E-06
            5530            5655     786.752E-06     730.275E-06
            5531            5637     778.679E-06     752.037E-06
            5531            5638     765.048E-06     739.630E-06
            5531            5655     786.752E-06     730.275E-06
            5531            5656     781.707E-06     727.410E-06
            5532            5638     765.048E-06     739.630E-06
            5532            5639     751.855E-06     727.874E-06
            5532            5656     781.707E-06     727.410E-06
            5532            5657     773.704E-06     721.728E-06
            5533            5639     751.855E-06     727.874E-06
            5533            5640     739.397E-06     716.855E-06
            5533            5657     773.704E-06     721.728E-06
            5533            5658     764.385E-06     715.127E-06
            5534            5640     739.397E-06     716.855E-06
            5534            5641     727.701E-06     706.942E-06
            5534            5658     764.385E-06     715.127E-06
            5534            5659     754.760E-06     708.239E-06
            5535            5641     727.701E-06     706.942E-06
            5535            5642     716.954E-06     698.039E-06
            5535            5659     754.760E-06     708.239E-06
            5535            5660     744.933E-06     701.830E-06
            5536            5642     716.954E-06     698.039E-06
            5536            5643     706.865E-06     690.203E-06
            5536            5660     744.933E-06     701.830E-06
            5536            5661     735.566E-06     695.982E-06
            5537            5643     706.865E-06     690.203E-06
            5537            5644     697.777E-06     683.532E-06
            5537            5661     735.566E-06     695.982E-06
            5537            5662     726.314E-06     690.987E-06
            5538            5644     697.777E-06     683.532E-06
            5538            5645     689.357E-06     677.932E-06
            5538            5662     726.314E-06     690.987E-06
            5538            5663     717.854E-06     686.994E-06
            5539            5645     689.357E-06     677.932E-06
            5539            5646     681.782E-06     674.202E-06
            5539            5663     717.854E-06     686.994E-06
            5539            5664     709.399E-06     683.890E-06
            5540            5646     681.782E-06     674.202E-06
            5540            5647     675.647E-06     671.025E-06
            5540            5664     709.399E-06     683.890E-06
            5540            5665     701.102E-06     682.609E-06
            5541            5647     675.647E-06     671.025E-06
            5541            5648     666.971E-06     672.721E-06
            5541            5665     701.102E-06     682.609E-06
            5541            5666     690.392E-06     684.411E-06
            5542            5648     666.971E-06     672.721E-06
            5542            5649     663.874E-06     678.113E-06
            5542            5666     690.392E-06     684.411E-06
            5542            5667     673.195E-06     697.830E-06
            5543            5649     663.874E-06     678.113E-06
            5543            5650     683.634E-06     663.046E-06
            5543            5667     673.195E-06     697.830E-06
            5543            5668     657.279E-06     724.306E-06
            5544             936     651.459E-06     738.993E-06
            5544             937     700.564E-06     646.348E-06
            5544            5650     683.634E-06     663.046E-06
            5544            5668     657.279E-06     724.306E-06
            5545              42     480.370E-06     381.279E-06
            5545             987     616.488E-06     529.941E-06
            5545             988     513.935E-06     444.354E-06
            5545            5651     661.509E-06     593.026E-06
            5546             986     714.759E-06     632.479E-06
            5546             987     616.488E-06     529.941E-06
            5546            5651     661.509E-06     593.026E-06
            5546            5652     738.401E-06     674.392E-06
            5547             985     758.937E-06     682.065E-06
            5547             986     714.759E-06     632.479E-06
            5547            5652     738.401E-06     674.392E-06
            5547            5653     773.299E-06     712.417E-06
            5548             984     783.599E-06     709.309E-06
            5548             985     758.937E-06     682.065E-06
            5548            5653     773.299E-06     712.417E-06
            5548            5654     786.304E-06     727.328E-06
            5549             983     790.833E-06     719.466E-06
            5549             984     783.599E-06     709.309E-06
            5549            5654     786.304E-06     727.328E-06
            5549            5655     786.752E-06     730.275E-06
            5550             982     790.324E-06     721.320E-06
            5550             983     790.833E-06     719.466E-06
            5550            5655     786.752E-06     730.275E-06
            5550            5656     781.707E-06     727.410E-06
            5551             981     785.005E-06     719.210E-06
            5551             982     790.324E-06     721.320E-06
            5551            5656     781.707E-06     727.410E-06
            5551            5657     773.704E-06     721.728E-06
            5552             980     777.412E-06     714.354E-06
            5552             981     785.005E-06     719.210E-06
            5552            5657     773.704E-06     721.728E-06
            5552            5658     764.385E-06     715.127E-06
            5553             979     768.639E-06     709.346E-06
            5553             980     777.412E-06     714.354E-06
            5553            5658     764.385E-06     715.127E-06
            5553            5659     754.760E-06     708.239E-06
            5554             978     759.450E-06     703.807E-06
            5554             979     768.639E-06     709.346E-06
            5554            5659     754.760E-06     708.239E-06
            5554            5660     744.933E-06     701.830E-06
            5555             977     750.241E-06     699.226E-06
            5555             978     759.450E-06     703.807E-06
            5555            5660     744.933E-06     701.830E-06
            5555            5661     735.566E-06     695.982E-06
            5556             976     741.062E-06     694.785E-06
            5556             977     750.241E-06     699.226E-06
            5556            5661     735.566E-06     695.982E-06
            5556            5662     726.314E-06     690.987E-06
            5557             975     732.491E-06     691.960E-06
            5557             976     741.062E-06     694.785E-06
            5557            5662     726.314E-06     690.987E-06
            5557            5663     717.854E-06     686.994E-06
            5558             974     723.541E-06     688.611E-06
            5558             975     732.491E-06     691.960E-06
            5558            5663     717.854E-06     686.994E-06
            5558            5664     709.399E-06     683.890E-06
            5559             973     714.945E-06     689.159E-06
            5559             974     723.541E-06     688.611E-06
            5559            5664     709.399E-06     683.890E-06
            5559            5665     701.102E-06     682.609E-06
            5560             972     704.295E-06     687.382E-06
            5560             973     714.945E-06     689.159E-06
            5560            5665     701.102E-06     682.609E-06
            5560            5666     690.392E-06     684.411E-06
            5561             971     688.610E-06     700.056E-06
            5561             972     704.295E-06     687.382E-06
            5561            5666     690.392E-06     684.411E-06
            5561            5667     673.195E-06     697.830E-06
            5562             970     642.107E-06     736.589E-06
            5562             971     688.610E-06     700.056E-06
            5562            5667     673.195E-06     697.830E-06
            5562            5668     657.279E-06     724.306E-06
            5563              40     604.197E-06     755.548E-06
            5563             936     651.459E-06     738.993E-06
            5563             970     642.107E-06     736.589E-06
            5563            5668     657.279E-06     724.306E-06
            5564              33     6.20063E-03     8.77959E-03
            5564             714     9.18624E-03     11.5301E-03
            5564             842     7.69119E-03     11.5695E-03
            5564            5669     9.98751E-03     13.2155E-03
            5565             713     15.3331E-03     17.6579E-03
            5565             714     9.18624E-03     11.5301E-03
            5565            5669     9.98751E-03     13.2155E-03
            5565            5670     15.1153E-03     17.8665E-03
            5566             712     21.8571E-03     24.5716E-03
            5566             713     15.3331E-03     17.6579E-03
            5566            5670     15.1153E-03     17.8665E-03
            5566            5671     21.0352E-03     24.1801E-03
            5567             711     28.6733E-03     31.6868E-03
            5567             712     21.8571E-03     24.5716E-03
            5567            5671     21.0352E-03     24.1801E-03
            5567            5672     27.3250E-03     30.8527E-03
            5568             710     35.6401E-03     38.8436E-03
            5568             711     28.6733E-03     31.6868E-03
            5568            5672     27.3250E-03     30.8527E-03
            5568            5673     33.8073E-03     37.6130E-03
            5569             709     42.6972E-03     46.0105E-03
            5569             710     35.6401E-03     38.8436E-03
            5569            5673     33.8073E-03     37.6130E-03
            5569            5674     40.3978E-03     44.3853E-03
            5570             708     49.7916E-03     53.1724E-03
            5570             709     42.6972E-03     46.0105E-03
            5570            5674     40.3978E-03     44.3853E-03
            5570            5675     47.0479E-03     51.1399E-03
            5571             707     56.9103E-03     60.3191E-03
            5571             708     49.7916E-03     53.1724E-03
            5571            5675     47.0479E-03     51.1399E-03
            5571            5676     53.7213E-03     57.8710E-03
            5572             706     64.0273E-03     67.4510E-03
            5572             707     56.9103E-03     60.3191E-03
            5572            5676     53.7213E-03     57.8710E-03
            5572            5677     60.3993E-03     64.5717E-03
            5573             705     71.1476E-03     74.5589E-03
            5573             706     64.0273E-03     67.4510E-03
            5573            5677     60.3993E-03     64.5717E-03
            5573            5678     67.0705E-03     71.2372E-03
            5574             704     78.2538E-03     81.6505E-03
            5574             705     71.1476E-03     74.5589E-03
            5574            5678     67.0705E-03     71.2372E-03
            5574            5679     73.7396E-03     77.8778E-03
            5575             703     85.3758E-03     88.7186E-03
            5575             704     78.2538E-03     81.6505E-03
            5575            5679     73.7396E-03     77.8778E-03
            5575            5680     80.4130E-03     84.4916E-03
            5576             702     92.4980E-03     95.7886E-03
            5576             703     85.3758E-03     88.7186E-03
            5576            5680     80.4130E-03     84.4916E-03
            5576            5681     87.1429E-03     91.1298E-03
            5577             701     99.7003E-03     102.870E-03
            5577             702     92.4980E-03     95.7886E-03
            5577            5681     87.1429E-03     91.1298E-03
            5577            5682     93.9614E-03     97.8200E-03
            5578             700     106.966E-03     110.037E-03
            5578             701     99.7003E-03     102.870E-03
            5578            5682     93.9614E-03     97.8200E-03
            5578            5683     101.046E-03     104.731E-03
            5579             699     114.495E-03     117.366E-03
            5579             700     106.966E-03     110.037E-03
            5579            5683     101.046E-03     104.731E-03
            5579            5684     108.481E-03     111.994E-03
            5580             698     122.271E-03     125.062E-03
            5580             699     114.495E-03     117.366E-03
            5580            5684     108.481E-03     111.994E-03
            5580            5685     116.828E-03     120.150E-03
            5581             697     130.858E-03     133.532E-03
            5581             698     122.271E-03     125.062E-03
            5581            5685     116.828E-03     120.150E-03
            5581            5686     126.322E-03     129.635E-03
            5582              32     140.337E-03     143.367E-03
            5582             697     130.858E-03     133.532E-03
            5582             994     139.277E-03     142.774E-03
            5582            5686     126.322E-03     129.635E-03
            5583             842     7.69119E-03     11.5695E-03
            5583             843     4.42395E-03     8.13738E-03
            5583            5669     9.98751E-03     13.2155E-03
            5583            5687     7.02868E-03     10.9263E-03
            5584            5669     9.98751E-03     13.2155E-03
            5584            5670     15.1153E-03     17.8665E-03
            5584            5687     7.02868E-03     10.9263E-03
            5584            5688     13.0967E-03     16.7786E-03
            5585            5670     15.1153E-03     17.8665E-03
            5585            5671     21.0352E-03     24.1801E-03
            5585            5688     13.0967E-03     16.7786E-03
            5585            5689     19.9848E-03     23.2662E-03
            5586            5671     21.0352E-03     24.1801E-03
            5586            5672     27.3250E-03     30.8527E-03
            5586            5689     19.9848E-03     23.2662E-03
            5586            5690     26.8320E-03     30.1770E-03
            5587            5672     27.3250E-03     30.8527E-03
            5587            5673     33.8073E-03     37.6130E-03
            5587            5690     26.8320E-03     30.1770E-03
            5587            5691     33.7004E-03     37.1467E-03
            5588            5673     33.8073E-03     37.6130E-03
            5588            5674     40.3978E-03     44.3853E-03
            5588            5691     33.7004E-03     37.1467E-03
            5588            5692     40.6009E-03     44.1243E-03
            5589            5674     40.3978E-03     44.3853E-03
            5589            5675     47.0479E-03     51.1399E-03
            5589            5692     40.6009E-03     44.1243E-03
            5589            5693     47.5107E-03     51.0963E-03
            5590            5675     47.0479E-03     51.1399E-03
            5590            5676     53.7213E-03     57.8710E-03
            5590            5693     47.5107E-03     51.0963E-03
            5590            5694     54.4296E-03     58.0528E-03
            5591            5676     53.7213E-03     57.8710E-03
            5591            5677     60.3993E-03     64.5717E-03
            5591            5694     54.4296E-03     58.0528E-03
            5591            5695     61.3481E-03     64.9952E-03
            5592            5677     60.3993E-03     64.5717E-03
            5592            5678     67.0705E-03     71.2372E-03
            5592            5695     61.3481E-03     64.9952E-03
            5592            5696     68.2691E-03     71.9290E-03
            5593            5678     67.0705E-03     71.2372E-03
            5593            5679     73.7396E-03     77.8778E-03
            5593            5696     68.2691E-03     71.9290E-03
            5593            5697     75.1938E-03     78.8585E-03
            5594            5679     73.7396E-03     77.8778E-03
            5594            5680     80.4130E-03     84.4916E-03
            5594            5697     75.1938E-03     78.8585E-03
            5594            5698     82.1493E-03     85.8100E-03
            5595            5680     80.4130E-03     84.4916E-03
            5595            5681     87.1429E-03     91.1298E-03
            5595            5698     82.1493E-03     85.8100E-03
            5595            5699     89.1546E-03     92.8141E-03
            5596            5681     87.1429E-03     91.1298E-03
            5596            5682     93.9614E-03     97.8200E-03
            5596            5699     89.1546E-03     92.8141E-03
            5596            5700     96.3066E-03     99.9487E-03
            5597            5682     93.9614E-03     97.8200E-03
            5597            5683     101.046E-03     104.731E-03
            5597            5700     96.3066E-03     99.9487E-03
            5597            5701     103.680E-03     107.334E-03
            5598            5683     101.046E-03     104.731E-03
            5598            5684     108.481E-03     111.994E-03
            5598            5701     103.680E-03     107.334E-03
            5598            5702     111.566E-03     115.180E-03
            5599            5684     108.481E-03     111.994E-03
            5599            5685     116.828E-03     120.150E-03
            5599            5702     111.566E-03     115.180E-03
            5599            5703     120.266E-03     123.895E-03
            5600            5685     116.828E-03     120.150E-03
            5600            5686     126.322E-03     129.635E-03
            5600            5703     120.266E-03     123.895E-03
            5600            5704     130.490E-03     133.977E-03
            5601             994     139.277E-03     142.774E-03
            5601             995     144.580E-03     147.071E-03
            5601            5686     126.322E-03     129.635E-03
            5601            5704     130.490E-03     133.977E-03
            5602             843     4.42395E-03     8.13738E-03
            5602             844     3.04705E-03     5.65837E-03
            5602            5687     7.02868E-03     10.9263E-03
            5602            5705     6.01904E-03     9.31007E-03
            5603            5687     7.02868E-03     10.9263E-03
            5603            5688     13.0967E-03     16.7786E-03
            5603            5705     6.01904E-03     9.31007E-03
            5603            5706     12.5829E-03     16.2973E-03
            5604            5688     13.0967E-03     16.7786E-03
            5604            5689     19.9848E-03     23.2662E-03
            5604            5706     12.5829E-03     16.2973E-03
            5604            5707     19.7608E-03     23.0847E-03
            5605            5689     19.9848E-03     23.2662E-03
            5605            5690     26.8320E-03     30.1770E-03
            5605            5707     19.7608E-03     23.0847E-03
            5605            5708     26.8951E-03     30.0505E-03
            5606            5690     26.8320E-03     30.1770E-03
            5606            5691     33.7004E-03     37.1467E-03
            5606            5708     26.8951E-03     30.0505E-03
            5606            5709     33.9899E-03     37.1017E-03
            5607            5691     33.7004E-03     37.1467E-03
            5607            5692     40.6009E-03     44.1243E-03
            5607            5709     33.9899E-03     37.1017E-03
            5607            5710     41.0776E-03     44.1805E-03
            5608            5692     40.6009E-03     44.1243E-03
            5608            5693     47.5107E-03     51.0963E-03
            5608            5710     41.0776E-03     44.1805E-03
            5608            5711     48.1642E-03     51.2722E-03
            5609            5693     47.5107E-03     51.0963E-03
            5609            5694     54.4296E-03     58.0528E-03
            5609            5711     48.1642E-03     51.2722E-03
            5609            5712     55.2534E-03     58.3754E-03
            5610            5694     54.4296E-03     58.0528E-03
            5610            5695     61.3481E-03     64.9952E-03
            5610            5712     55.2534E-03     58.3754E-03
            5610            5713     62.3489E-03     65.4930E-03
            5611            5695     61.3481E-03     64.9952E-03
            5611            5696     68.2691E-03     71.9290E-03
            5611            5713     62.3489E-03     65.4930E-03
            5611            5714     69.4557E-03     72.6283E-03
            5612            5696     68.2691E-03     71.9290E-03
            5612            5697     75.1938E-03     78.8585E-03
            5612            5714     69.4557E-03     72.6283E-03
            5612            5715     76.5871E-03     79.7957E-03
            5613            5697     75.1938E-03     78.8585E-03
            5613            5698     82.1493E-03     85.8100E-03
            5613            5715     76.5871E-03     79.7957E-03
            5613            5716     83.7581E-03     87.0187E-03
            5614            5698     82.1493E-03     85.8100E-03
            5614            5699     89.1546E-03     92.8141E-03
            5614            5716     83.7581E-03     87.0187E-03
            5614            5717     91.0094E-03     94.3329E-03
            5615            5699     89.1546E-03     92.8141E-03
            5615            5700     96.3066E-03     99.9487E-03
            5615            5717     91.0094E-03     94.3329E-03
            5615            5718     98.3990E-03     101.815E-03
            5616            5700     96.3066E-03     99.9487E-03
            5616            5701     103.680E-03     107.334E-03
            5616            5718     98.3990E-03     101.815E-03
            5616            5719     106.036E-03     109.544E-03
            5617            5701     103.680E-03     107.334E-03
            5617            5702     111.566E-03     115.180E-03
            5617            5719     106.036E-03     109.544E-03
            5617            5720     114.146E-03     117.737E-03
            5618            5702     111.566E-03     115.180E-03
            5618            5703     120.266E-03     123.895E-03
            5618            5720     114.146E-03     117.737E-03
            5618            5721     122.918E-03     126.526E-03
            5619            5703     120.266E-03     123.895E-03
            5619            5704     130.490E-03     133.977E-03
            5619            5721     122.918E-03     126.526E-03
            5619            5722     133.336E-03     136.498E-03
            5620             995     144.580E-03     147.071E-03
            5620             996     144.695E-03     147.359E-03
            5620            5704     130.490E-03     133.977E-03
            5620            5722     133.336E-03     136.498E-03
            5621             844     3.04705E-03     5.65837E-03
            5621             845     4.61936E-03     6.89564E-03
            5621            5705     6.01904E-03     9.31007E-03
            5621            5723     7.38928E-03     9.95033E-03
            5622            5705     6.01904E-03     9.31007E-03
            5622            5706     12.5829E-03     16.2973E-03
            5622            5723     7.38928E-03     9.95033E-03
            5622            5724     13.4792E-03     16.5454E-03
            5623            5706     12.5829E-03     16.2973E-03
            5623            5707     19.7608E-03     23.0847E-03
            5623            5724     13.4792E-03     16.5454E-03
            5623            5725     20.3320E-03     23.4774E-03
            5624            5707     19.7608E-03     23.0847E-03
            5624            5708     26.8951E-03     30.0505E-03
            5624            5725     20.3320E-03     23.4774E-03
            5624            5726     27.4452E-03     30.3580E-03
            5625            5708     26.8951E-03     30.0505E-03
            5625            5709     33.9899E-03     37.1017E-03
            5625            5726     27.4452E-03     30.3580E-03
            5625            5727     34.5919E-03     37.3690E-03
            5626            5709     33.9899E-03     37.1017E-03
            5626            5710     41.0776E-03     44.1805E-03
            5626            5727     34.5919E-03     37.3690E-03
            5626            5728     41.7420E-03     44.4334E-03
            5627            5710     41.0776E-03     44.1805E-03
            5627            5711     48.1642E-03     51.2722E-03
            5627            5728     41.7420E-03     44.4334E-03
            5627            5729     48.9083E-03     51.5497E-03
            5628            5711     48.1642E-03     51.2722E-03
            5628            5712     55.2534E-03     58.3754E-03
            5628            5729     48.9083E-03     51.5497E-03
            5628            5730     56.0803E-03     58.7156E-03
            5629            5712     55.2534E-03     58.3754E-03
            5629            5713     62.3489E-03     65.4930E-03
            5629            5730     56.0803E-03     58.7156E-03
            5629            5731     63.2720E-03     65.9218E-03
            5630            5713     62.3489E-03     65.4930E-03
            5630            5714     69.4557E-03     72.6283E-03
            5630            5731     63.2720E-03     65.9218E-03
            5630            5732     70.4899E-03     73.1768E-03
            5631            5714     69.4557E-03     72.6283E-03
            5631            5715     76.5871E-03     79.7957E-03
            5631            5732     70.4899E-03     73.1768E-03
            5631            5733     77.7475E-03     80.4923E-03
            5632            5715     76.5871E-03     79.7957E-03
            5632            5716     83.7581E-03     87.0187E-03
            5632            5733     77.7475E-03     80.4923E-03
            5632            5734     85.0587E-03     87.8858E-03
            5633            5716     83.7581E-03     87.0187E-03
            5633            5717     91.0094E-03     94.3329E-03
            5633            5734     85.0587E-03     87.8858E-03
            5633            5735     92.4608E-03     95.4004E-03
            5634            5717     91.0094E-03     94.3329E-03
            5634            5718     98.3990E-03     101.815E-03
            5634            5735     92.4608E-03     95.4004E-03
            5634            5736     99.9746E-03     103.064E-03
            5635            5718     98.3990E-03     101.815E-03
            5635            5719     106.036E-03     109.544E-03
            5635            5736     99.9746E-03     103.064E-03
            5635            5737     107.728E-03     110.966E-03
            5636            5719     106.036E-03     109.544E-03
            5636            5720     114.146E-03     117.737E-03
            5636            5737     107.728E-03     110.966E-03
            5636            5738     115.712E-03     119.132E-03
            5637            5720     114.146E-03     117.737E-03
            5637            5721     122.918E-03     126.526E-03
            5637            5738     115.712E-03     119.132E-03
            5637            5739     124.327E-03     127.688E-03
            5638            5721     122.918E-03     126.526E-03
            5638            5722     133.336E-03     136.498E-03
            5638            5739     124.327E-03     127.688E-03
            5638            5740     133.266E-03     136.519E-03
            5639             996     144.695E-03     147.359E-03
            5639             997     142.043E-03     145.134E-03
            5639            5722     133.336E-03     136.498E-03
            5639            5740     133.266E-03     136.519E-03
            5640             845     4.61936E-03     6.89564E-03
            5640             846     8.40076E-03     9.07952E-03
            5640            5723     7.38928E-03     9.95033E-03
            5640            5741     10.2546E-03     11.9597E-03
            5641            5723     7.38928E-03     9.95033E-03
            5641            5724     13.4792E-03     16.5454E-03
            5641            5741     10.2546E-03     11.9597E-03
            5641            5742     15.1675E-03     17.8901E-03
            5642            5724     13.4792E-03     16.5454E-03
            5642            5725     20.3320E-03     23.4774E-03
            5642            5742     15.1675E-03     17.8901E-03
            5642            5743     21.5843E-03     24.3079E-03
            5643            5725     20.3320E-03     23.4774E-03
            5643            5726     27.4452E-03     30.3580E-03
            5643            5743     21.5843E-03     24.3079E-03
            5643            5744     28.4180E-03     31.0462E-03
            5644            5726     27.4452E-03     30.3580E-03
            5644            5727     34.5919E-03     37.3690E-03
            5644            5744     28.4180E-03     31.0462E-03
            5644            5745     35.4442E-03     37.8503E-03
            5645            5727     34.5919E-03     37.3690E-03
            5645            5728     41.7420E-03     44.4334E-03
            5645            5745     35.4442E-03     37.8503E-03
            5645            5746     42.5503E-03     44.7946E-03
            5646            5728     41.7420E-03     44.4334E-03
            5646            5729     48.9083E-03     51.5497E-03
            5646            5746     42.5503E-03     44.7946E-03
            5646            5747     49.6762E-03     51.8493E-03
            5647            5729     48.9083E-03     51.5497E-03
            5647            5730     56.0803E-03     58.7156E-03
            5647            5747     49.6762E-03     51.8493E-03
            5647            5748     56.8357E-03     58.9789E-03
            5648            5730     56.0803E-03     58.7156E-03
            5648            5731     63.2720E-03     65.9218E-03
            5648            5748     56.8357E-03     58.9789E-03
            5648            5749     64.0265E-03     66.1806E-03
            5649            5731     63.2720E-03     65.9218E-03
            5649            5732     70.4899E-03     73.1768E-03
            5649            5749     64.0265E-03     66.1806E-03
            5649            5750     71.2609E-03     73.4499E-03
            5650            5732     70.4899E-03     73.1768E-03
            5650            5733     77.7475E-03     80.4923E-03
            5650            5750     71.2609E-03     73.4499E-03
            5650            5751     78.5429E-03     80.7939E-03
            5651            5733     77.7475E-03     80.4923E-03
            5651            5734     85.0587E-03     87.8858E-03
            5651            5751     78.5429E-03     80.7939E-03
            5651            5752     85.8934E-03     88.2332E-03
            5652            5734     85.0587E-03     87.8858E-03
            5652            5735     92.4608E-03     95.4004E-03
            5652            5752     85.8934E-03     88.2332E-03
            5652            5753     93.3049E-03     95.7766E-03
            5653            5735     92.4608E-03     95.4004E-03
            5653            5736     99.9746E-03     103.064E-03
            5653            5753     93.3049E-03     95.7766E-03
            5653            5754     100.835E-03     103.461E-03
            5654            5736     99.9746E-03     103.064E-03
            5654            5737     107.728E-03     110.966E-03
            5654            5754     100.835E-03     103.461E-03
            5654            5755     108.421E-03     111.275E-03
            5655            5737     107.728E-03     110.966E-03
            5655            5738     115.712E-03     119.132E-03
            5655            5755     108.421E-03     111.275E-03
            5655            5756     116.203E-03     119.207E-03
            5656            5738     115.712E-03     119.132E-03
            5656            5739     124.327E-03     127.688E-03
            5656            5756     116.203E-03     119.207E-03
            5656            5757     123.943E-03     127.151E-03
            5657            5739     124.327E-03     127.688E-03
            5657            5740     133.266E-03     136.519E-03
            5657            5757     123.943E-03     127.151E-03
            5657            5758     131.512E-03     134.734E-03
            5658             997     142.043E-03     145.134E-03
            5658             998     138.821E-03     141.490E-03
            5658            5740     133.266E-03     136.519E-03
            5658            5758     131.512E-03     134.734E-03
            5659             846     8.40076E-03     9.07952E-03
            5659             847     12.0595E-03     12.9088E-03
            5659            5741     10.2546E-03     11.9597E-03
            5659            5759     13.4941E-03     14.9183E-03
            5660            5741     10.2546E-03     11.9597E-03
            5660            5742     15.1675E-03     17.8901E-03
            5660            5759     13.4941E-03     14.9183E-03
            5660            5760     17.5453E-03     19.8397E-03
            5661            5742     15.1675E-03     17.8901E-03
            5661            5743     21.5843E-03     24.3079E-03
            5661            5760     17.5453E-03     19.8397E-03
            5661            5761     23.2763E-03     25.7898E-03
            5662            5743     21.5843E-03     24.3079E-03
            5662            5744     28.4180E-03     31.0462E-03
            5662            5761     23.2763E-03     25.7898E-03
            5662            5762     29.7552E-03     31.9966E-03
            5663            5744     28.4180E-03     31.0462E-03
            5663            5745     35.4442E-03     37.8503E-03
            5663            5762     29.7552E-03     31.9966E-03
            5663            5763     36.5595E-03     38.4968E-03
            5664            5745     35.4442E-03     37.8503E-03
            5664            5746     42.5503E-03     44.7946E-03
            5664            5763     36.5595E-03     38.4968E-03
            5664            5764     43.4718E-03     45.2387E-03
            5665            5746     42.5503E-03     44.7946E-03
            5665            5747     49.6762E-03     51.8493E-03
            5665            5764     43.4718E-03     45.2387E-03
            5665            5765     50.4522E-03     52.1295E-03
            5666            5747     49.6762E-03     51.8493E-03
            5666            5748     56.8357E-03     58.9789E-03
            5666            5765     50.4522E-03     52.1295E-03
            5666            5766     57.4842E-03     59.1328E-03
            5667            5748     56.8357E-03     58.9789E-03
            5667            5749     64.0265E-03     66.1806E-03
            5667            5766     57.4842E-03     59.1328E-03
            5667            5767     64.5689E-03     66.2191E-03
            5668            5749     64.0265E-03     66.1806E-03
            5668            5750     71.2609E-03     73.4499E-03
            5668            5767     64.5689E-03     66.2191E-03
            5668            5768     71.7047E-03     73.3817E-03
            5669            5750     71.2609E-03     73.4499E-03
            5669            5751     78.5429E-03     80.7939E-03
            5669            5768     71.7047E-03     73.3817E-03
            5669            5769     78.9004E-03     80.6218E-03
            5670            5751     78.5429E-03     80.7939E-03
            5670            5752     85.8934E-03     88.2332E-03
            5670            5769     78.9004E-03     80.6218E-03
            5670            5770     86.1436E-03     87.9401E-03
            5671            5752     85.8934E-03     88.2332E-03
            5671            5753     93.3049E-03     95.7766E-03
            5671            5770     86.1436E-03     87.9401E-03
            5671            5771     93.4543E-03     95.3481E-03
            5672            5753     93.3049E-03     95.7766E-03
            5672            5754     100.835E-03     103.461E-03
            5672            5771     93.4543E-03     95.3481E-03
            5672            5772     100.776E-03     102.831E-03
            5673            5754     100.835E-03     103.461E-03
            5673            5755     108.421E-03     111.275E-03
            5673            5772     100.776E-03     102.831E-03
            5673            5773     108.137E-03     110.363E-03
            5674            5755     108.421E-03     111.275E-03
            5674            5756     116.203E-03     119.207E-03
            5674            5773     108.137E-03     110.363E-03
            5674            5774     115.355E-03     117.860E-03
            5675            5756     116.203E-03     119.207E-03
            5675            5757     123.943E-03     127.151E-03
            5675            5774     115.355E-03     117.860E-03
            5675            5775     122.340E-03     125.070E-03
            5676            5757     123.943E-03     127.151E-03
            5676            5758     131.512E-03     134.734E-03
            5676            5775     122.340E-03     125.070E-03
            5676            5776     128.819E-03     131.669E-03
            5677             998     138.821E-03     141.490E-03
            5677             999     134.617E-03     137.380E-03
            5677            5758     131.512E-03     134.734E-03
            5677            5776     128.819E-03     131.669E-03
            5678             847     12.0595E-03     12.9088E-03
            5678             848     15.7992E-03     16.2021E-03
            5678            5759     13.4941E-03     14.9183E-03
            5678            5777     16.9561E-03     18.2270E-03
            5679            5759     13.4941E-03     14.9183E-03
            5679            5760     17.5453E-03     19.8397E-03
            5679            5777     16.9561E-03     18.2270E-03
            5679            5778     20.2762E-03     22.6749E-03
            5680            5760     17.5453E-03     19.8397E-03
            5680            5761     23.2763E-03     25.7898E-03
            5680            5778     20.2762E-03     22.6749E-03
            5680            5779     25.3701E-03     27.6597E-03
            5681            5761     23.2763E-03     25.7898E-03
            5681            5762     29.7552E-03     31.9966E-03
            5681            5779     25.3701E-03     27.6597E-03
            5681            5780     31.4910E-03     33.1917E-03
            5682            5762     29.7552E-03     31.9966E-03
            5682            5763     36.5595E-03     38.4968E-03
            5682            5780     31.4910E-03     33.1917E-03
            5682            5781     37.9376E-03     39.3285E-03
            5683            5763     36.5595E-03     38.4968E-03
            5683            5764     43.4718E-03     45.2387E-03
            5683            5781     37.9376E-03     39.3285E-03
            5683            5782     44.5358E-03     45.7810E-03
            5684            5764     43.4718E-03     45.2387E-03
            5684            5765     50.4522E-03     52.1295E-03
            5684            5782     44.5358E-03     45.7810E-03
            5684            5783     51.2507E-03     52.4281E-03
            5685            5765     50.4522E-03     52.1295E-03
            5685            5766     57.4842E-03     59.1328E-03
            5685            5783     51.2507E-03     52.4281E-03
            5685            5784     58.0448E-03     59.2005E-03
            5686            5766     57.4842E-03     59.1328E-03
            5686            5767     64.5689E-03     66.2191E-03
            5686            5784     58.0448E-03     59.2005E-03
            5686            5785     64.9075E-03     66.0598E-03
            5687            5767     64.5689E-03     66.2191E-03
            5687            5768     71.7047E-03     73.3817E-03
            5687            5785     64.9075E-03     66.0598E-03
            5687            5786     71.8303E-03     72.9877E-03
            5688            5768     71.7047E-03     73.3817E-03
            5688            5769     78.9004E-03     80.6218E-03
            5688            5786     71.8303E-03     72.9877E-03
            5688            5787     78.7983E-03     79.9729E-03
            5689            5769     78.9004E-03     80.6218E-03
            5689            5770     86.1436E-03     87.9401E-03
            5689            5787     78.7983E-03     79.9729E-03
            5689            5788     85.8117E-03     87.0084E-03
            5690            5770     86.1436E-03     87.9401E-03
            5690            5771     93.4543E-03     95.3481E-03
            5690            5788     85.8117E-03     87.0084E-03
            5690            5789     92.8315E-03     94.0808E-03
            5691            5771     93.4543E-03     95.3481E-03
            5691            5772     100.776E-03     102.831E-03
            5691            5789     92.8315E-03     94.0808E-03
            5691            5790     99.8450E-03     101.164E-03
            5692            5772     100.776E-03     102.831E-03
            5692            5773     108.137E-03     110.363E-03
            5692            5790     99.8450E-03     101.164E-03
            5692            5791     106.746E-03     108.204E-03
            5693            5773     108.137E-03     110.363E-03
            5693            5774     115.355E-03     117.860E-03
            5693            5791     106.746E-03     108.204E-03
            5693            5792     113.428E-03     115.079E-03
            5694            5774     115.355E-03     117.860E-03
            5694            5775     122.340E-03     125.070E-03
            5694            5792     113.428E-03     115.079E-03
            5694            5793     119.666E-03     121.593E-03
            5695            5775     122.340E-03     125.070E-03
            5695            5776     128.819E-03     131.669E-03
            5695            5793     119.666E-03     121.593E-03
            5695            5794     125.203E-03     127.415E-03
            5696             999     134.617E-03     137.380E-03
            5696            1000     129.931E-03     132.172E-03
            5696            5776     128.819E-03     131.669E-03
            5696            5794     125.203E-03     127.415E-03
            5697             848     15.7992E-03     16.2021E-03
            5697             849     20.0187E-03     21.3917E-03
            5697            5777     16.9561E-03     18.2270E-03
            5697            5795     20.4895E-03     22.9192E-03
            5698            5777     16.9561E-03     18.2270E-03
            5698            5778     20.2762E-03     22.6749E-03
            5698            5795     20.4895E-03     22.9192E-03
            5698            5796     23.1252E-03     25.9010E-03
            5699            5778     20.2762E-03     22.6749E-03
            5699            5779     25.3701E-03     27.6597E-03
            5699            5796     23.1252E-03     25.9010E-03
            5699            5797     28.0402E-03     29.6344E-03
            5700            5779     25.3701E-03     27.6597E-03
            5700            5780     31.4910E-03     33.1917E-03
            5700            5797     28.0402E-03     29.6344E-03
            5700            5798     33.6733E-03     34.6747E-03
            5701            5780     31.4910E-03     33.1917E-03
            5701            5781     37.9376E-03     39.3285E-03
            5701            5798     33.6733E-03     34.6747E-03
            5701            5799     39.6089E-03     40.4145E-03
            5702            5781     37.9376E-03     39.3285E-03
            5702            5782     44.5358E-03     45.7810E-03
            5702            5799     39.6089E-03     40.4145E-03
            5702            5800     45.7931E-03     46.5176E-03
            5703            5782     44.5358E-03     45.7810E-03
            5703            5783     51.2507E-03     52.4281E-03
            5703            5800     45.7931E-03     46.5176E-03
            5703            5801     52.1319E-03     52.8383E-03
            5704            5783     51.2507E-03     52.4281E-03
            5704            5784     58.0448E-03     59.2005E-03
            5704            5801     52.1319E-03     52.8383E-03
            5704            5802     58.5878E-03     59.2812E-03
            5705            5784     58.0448E-03     59.2005E-03
            5705            5785     64.9075E-03     66.0598E-03
            5705            5802     58.5878E-03     59.2812E-03
            5705            5803     65.1238E-03     65.8031E-03
            5706            5785     64.9075E-03     66.0598E-03
            5706            5786     71.8303E-03     72.9877E-03
            5706            5803     65.1238E-03     65.8031E-03
            5706            5804     71.7103E-03     72.3705E-03
            5707            5786     71.8303E-03     72.9877E-03
            5707            5787     78.7983E-03     79.9729E-03
            5707            5804     71.7103E-03     72.3705E-03
            5707            5805     78.3309E-03     78.9579E-03
            5708            5787     78.7983E-03     79.9729E-03
            5708            5788     85.8117E-03     87.0084E-03
            5708            5805     78.3309E-03     78.9579E-03
            5708            5806     84.9516E-03     85.5453E-03
            5709            5788     85.8117E-03     87.0084E-03
            5709            5789     92.8315E-03     94.0808E-03
            5709            5806     84.9516E-03     85.5453E-03
            5709            5807     91.5489E-03     92.0955E-03
            5710            5789     92.8315E-03     94.0808E-03
            5710            5790     99.8450E-03     101.164E-03
            5710            5807     91.5489E-03     92.0955E-03
            5710            5808     98.0622E-03     98.5739E-03
            5711            5790     99.8450E-03     101.164E-03
            5711            5791     106.746E-03     108.204E-03
            5711            5808     98.0622E-03     98.5739E-03
            5711            5809     104.404E-03     104.900E-03
            5712            5791     106.746E-03     108.204E-03
            5712            5792     113.428E-03     115.079E-03
            5712            5809     104.404E-03     104.900E-03
            5712            5810     110.465E-03     110.972E-03
            5713            5792     113.428E-03     115.079E-03
            5713            5793     119.666E-03     121.593E-03
            5713            5810     110.465E-03     110.972E-03
            5713            5811     115.986E-03     116.643E-03
            5714            5793     119.666E-03     121.593E-03
            5714            5794     125.203E-03     127.415E-03
            5714            5811     115.986E-03     116.643E-03
            5714            5812     120.781E-03     121.645E-03
            5715            1000     129.931E-03     132.172E-03
            5715            1001     124.505E-03     125.617E-03
            5715            5794     125.203E-03     127.415E-03
            5715            5812     120.781E-03     121.645E-03
            5716             849     20.0187E-03     21.3917E-03
            5716             850     22.2611E-03     27.3484E-03
            5716            5795     20.4895E-03     22.9192E-03
            5716            5813     23.6014E-03     27.2781E-03
            5717            5795     20.4895E-03     22.9192E-03
            5717            5796     23.1252E-03     25.9010E-03
            5717            5813     23.6014E-03     27.2781E-03
            5717            5814     26.9752E-03     28.4237E-03
            5718            5796     23.1252E-03     25.9010E-03
            5718            5797     28.0402E-03     29.6344E-03
            5718            5814     26.9752E-03     28.4237E-03
            5718            5815     31.3672E-03     31.8078E-03
            5719            5797     28.0402E-03     29.6344E-03
            5719            5798     33.6733E-03     34.6747E-03
            5719            5815     31.3672E-03     31.8078E-03
            5719            5816     36.2806E-03     36.5348E-03
            5720            5798     33.6733E-03     34.6747E-03
            5720            5799     39.6089E-03     40.4145E-03
            5720            5816     36.2806E-03     36.5348E-03
            5720            5817     41.6191E-03     41.8838E-03
            5721            5799     39.6089E-03     40.4145E-03
            5721            5800     45.7931E-03     46.5176E-03
            5721            5817     41.6191E-03     41.8838E-03
            5721            5818     47.2999E-03     47.5918E-03
            5722            5800     45.7931E-03     46.5176E-03
            5722            5801     52.1319E-03     52.8383E-03
            5722            5818     47.2999E-03     47.5918E-03
            5722            5819     53.1957E-03     53.5033E-03
            5723            5801     52.1319E-03     52.8383E-03
            5723            5802     58.5878E-03     59.2812E-03
            5723            5819     53.1957E-03     53.5033E-03
            5723            5820     59.2398E-03     59.5348E-03
            5724            5802     58.5878E-03     59.2812E-03
            5724            5803     65.1238E-03     65.8031E-03
            5724            5820     59.2398E-03     59.5348E-03
            5724            5821     65.3610E-03     65.6248E-03
            5725            5803     65.1238E-03     65.8031E-03
            5725            5804     71.7103E-03     72.3705E-03
            5725            5821     65.3610E-03     65.6248E-03
            5725            5822     71.5211E-03     71.7266E-03
            5726            5804     71.7103E-03     72.3705E-03
            5726            5805     78.3309E-03     78.9579E-03
            5726            5822     71.5211E-03     71.7266E-03
            5726            5823     77.6707E-03     77.8024E-03
            5727            5805     78.3309E-03     78.9579E-03
            5727            5806     84.9516E-03     85.5453E-03
            5727            5823     77.6707E-03     77.8024E-03
            5727            5824     83.7784E-03     83.7980E-03
            5728            5806     84.9516E-03     85.5453E-03
            5728            5807     91.5489E-03     92.0955E-03
            5728            5824     83.7784E-03     83.7980E-03
            5728            5825     89.7932E-03     89.6775E-03
            5729            5807     91.5489E-03     92.0955E-03
            5729            5808     98.0622E-03     98.5739E-03
            5729            5825     89.7932E-03     89.6775E-03
            5729            5826     95.6559E-03     95.3517E-03
            5730            5808     98.0622E-03     98.5739E-03
            5730            5809     104.404E-03     104.900E-03
            5730            5826     95.6559E-03     95.3517E-03
            5730            5827     101.303E-03     100.769E-03
            5731            5809     104.404E-03     104.900E-03
            5731            5810     110.465E-03     110.972E-03
            5731            5827     101.303E-03     100.769E-03
            5731            5828     106.585E-03     105.789E-03
            5732            5810     110.465E-03     110.972E-03
            5732            5811     115.986E-03     116.643E-03
            5732            5828     106.585E-03     105.789E-03
            5732            5829     111.427E-03     110.319E-03
            5733            5811     115.986E-03     116.643E-03
            5733            5812     120.781E-03     121.645E-03
            5733            5829     111.427E-03     110.319E-03
            5733            5830     115.485E-03     114.165E-03
            5734            1001     124.505E-03     125.617E-03
            5734            1002     118.543E-03     117.137E-03
            5734            5812     120.781E-03     121.645E-03
            5734            5830     115.485E-03     114.165E-03
            5735             850     22.2611E-03     27.3484E-03
            5735             851     13.0305E-03     16.8506E-03
            5735            5813     23.6014E-03     27.2781E-03
            5735            5831     15.1220E-03     17.7747E-03
            5736            5813     23.6014E-03     27.2781E-03
            5736            5814     26.9752E-03     28.4237E-03
            5736            5831     15.1220E-03     17.7747E-03
            5736            5832     19.1004E-03     20.4985E-03
            5737            5814     26.9752E-03     28.4237E-03
            5737            5815     31.3672E-03     31.8078E-03
            5737            5832     19.1004E-03     20.4985E-03
            5737            5833     23.1381E-03     24.6040E-03
            5738            5815     31.3672E-03     31.8078E-03
            5738            5816     36.2806E-03     36.5348E-03
            5738            5833     23.1381E-03     24.6040E-03
            5738            5834     27.6001E-03     29.3248E-03
            5739            5816     36.2806E-03     36.5348E-03
            5739            5817     41.6191E-03     41.8838E-03
            5739            5834     27.6001E-03     29.3248E-03
            5739            5835     32.3719E-03     34.2691E-03
            5740            5817     41.6191E-03     41.8838E-03
            5740            5818     47.2999E-03     47.5918E-03
            5740            5835     32.3719E-03     34.2691E-03
            5740            5836     37.3649E-03     39.3705E-03
            5741            5818     47.2999E-03     47.5918E-03
            5741            5819     53.1957E-03     53.5033E-03
            5741            5836     37.3649E-03     39.3705E-03
            5741            5837     42.4894E-03     44.5494E-03
            5742            5819     53.1957E-03     53.5033E-03
            5742            5820     59.2398E-03     59.5348E-03
            5742            5837     42.4894E-03     44.5494E-03
            5742            5838     47.6981E-03     49.7626E-03
            5743            5820     59.2398E-03     59.5348E-03
            5743            5821     65.3610E-03     65.6248E-03
            5743            5838     47.6981E-03     49.7626E-03
            5743            5839     52.9372E-03     54.9886E-03
            5744            5821     65.3610E-03     65.6248E-03
            5744            5822     71.5211E-03     71.7266E-03
            5744            5839     52.9372E-03     54.9886E-03
            5744            5840     58.1894E-03     60.1890E-03
            5745            5822     71.5211E-03     71.7266E-03
            5745            5823     77.6707E-03     77.8024E-03
            5745            5840     58.1894E-03     60.1890E-03
            5745            5841     63.4151E-03     65.3562E-03
            5746            5823     77.6707E-03     77.8024E-03
            5746            5824     83.7784E-03     83.7980E-03
            5746            5841     63.4151E-03     65.3562E-03
            5746            5842     68.6267E-03     70.4536E-03
            5747            5824     83.7784E-03     83.7980E-03
            5747            5825     89.7932E-03     89.6775E-03
            5747            5842     68.6267E-03     70.4536E-03
            5747            5843     73.7790E-03     75.4809E-03
            5748            5825     89.7932E-03     89.6775E-03
            5748            5826     95.6559E-03     95.3517E-03
            5748            5843     73.7790E-03     75.4809E-03
            5748            5844     78.9350E-03     80.4143E-03
            5749            5826     95.6559E-03     95.3517E-03
            5749            5827     101.303E-03     100.769E-03
            5749            5844     78.9350E-03     80.4143E-03
            5749            5845     84.0256E-03     85.2808E-03
            5750            5827     101.303E-03     100.769E-03
            5750            5828     106.585E-03     105.789E-03
            5750            5845     84.0256E-03     85.2808E-03
            5750            5846     89.2295E-03     90.1112E-03
            5751            5828     106.585E-03     105.789E-03
            5751            5829     111.427E-03     110.319E-03
            5751            5846     89.2295E-03     90.1112E-03
            5751            5847     94.4391E-03     95.0419E-03
            5752            5829     111.427E-03     110.319E-03
            5752            5830     115.485E-03     114.165E-03
            5752            5847     94.4391E-03     95.0419E-03
            5752            5848     100.149E-03     100.381E-03
            5753            1002     118.543E-03     117.137E-03
            5753            1003     106.251E-03     106.586E-03
            5753            5830     115.485E-03     114.165E-03
            5753            5848     100.149E-03     100.381E-03
            5754             851     13.0305E-03     16.8506E-03
            5754             852     2.06923E-03     4.85224E-03
            5754            5831     15.1220E-03     17.7747E-03
            5754            5849     4.27032E-03     6.80835E-03
            5755            5831     15.1220E-03     17.7747E-03
            5755            5832     19.1004E-03     20.4985E-03
            5755            5849     4.27032E-03     6.80835E-03
            5755            5850     8.63488E-03     11.1980E-03
            5756            5832     19.1004E-03     20.4985E-03
            5756            5833     23.1381E-03     24.6040E-03
            5756            5850     8.63488E-03     11.1980E-03
            5756            5851     13.0555E-03     16.0671E-03
            5757            5833     23.1381E-03     24.6040E-03
            5757            5834     27.6001E-03     29.3248E-03
            5757            5851     13.0555E-03     16.0671E-03
            5757            5852     17.6077E-03     20.9081E-03
            5758            5834     27.6001E-03     29.3248E-03
            5758            5835     32.3719E-03     34.2691E-03
            5758            5852     17.6077E-03     20.9081E-03
            5758            5853     22.2225E-03     25.7118E-03
            5759            5835     32.3719E-03     34.2691E-03
            5759            5836     37.3649E-03     39.3705E-03
            5759            5853     22.2225E-03     25.7118E-03
            5759            5854     26.8649E-03     30.4758E-03
            5760            5836     37.3649E-03     39.3705E-03
            5760            5837     42.4894E-03     44.5494E-03
            5760            5854     26.8649E-03     30.4758E-03
            5760            5855     31.5233E-03     35.2013E-03
            5761            5837     42.4894E-03     44.5494E-03
            5761            5838     47.6981E-03     49.7626E-03
            5761            5855     31.5233E-03     35.2013E-03
            5761            5856     36.1810E-03     39.8943E-03
            5762            5838     47.6981E-03     49.7626E-03
            5762            5839     52.9372E-03     54.9886E-03
            5762            5856     36.1810E-03     39.8943E-03
            5762            5857     40.8330E-03     44.5583E-03
            5763            5839     52.9372E-03     54.9886E-03
            5763            5840     58.1894E-03     60.1890E-03
            5763            5857     40.8330E-03     44.5583E-03
            5763            5858     45.4758E-03     49.1940E-03
            5764            5840     58.1894E-03     60.1890E-03
            5764            5841     63.4151E-03     65.3562E-03
            5764            5858     45.4758E-03     49.1940E-03
            5764            5859     50.1202E-03     53.8164E-03
            5765            5841     63.4151E-03     65.3562E-03
            5765            5842     68.6267E-03     70.4536E-03
            5765            5859     50.1202E-03     53.8164E-03
            5765            5860     54.7770E-03     58.4310E-03
            5766            5842     68.6267E-03     70.4536E-03
            5766            5843     73.7790E-03     75.4809E-03
            5766            5860     54.7770E-03     58.4310E-03
            5766            5861     59.4990E-03     63.0893E-03
            5767            5843     73.7790E-03     75.4809E-03
            5767            5844     78.9350E-03     80.4143E-03
            5767            5861     59.4990E-03     63.0893E-03
            5767            5862     64.3267E-03     67.8303E-03
            5768            5844     78.9350E-03     80.4143E-03
            5768            5845     84.0256E-03     85.2808E-03
            5768            5862     64.3267E-03     67.8303E-03
            5768            5863     69.4274E-03     72.8145E-03
            5769            5845     84.0256E-03     85.2808E-03
            5769            5846     89.2295E-03     90.1112E-03
            5769            5863     69.4274E-03     72.8145E-03
            5769            5864     74.9085E-03     78.1869E-03
            5770            5846     89.2295E-03     90.1112E-03
            5770            5847     94.4391E-03     95.0419E-03
            5770            5864     74.9085E-03     78.1869E-03
            5770            5865     81.2857E-03     84.4504E-03
            5771            5847     94.4391E-03     95.0419E-03
            5771            5848     100.149E-03     100.381E-03
            5771            5865     81.2857E-03     84.4504E-03
            5771            5866     88.8457E-03     92.0429E-03
            5772            1003     106.251E-03     106.586E-03
            5772            1004     99.6922E-03     103.081E-03
            5772            5848     100.149E-03     100.381E-03
            5772            5866     88.8457E-03     92.0429E-03
            5773             852     2.06923E-03     4.85224E-03
            5773             853     1.88512E-03     4.38895E-03
            5773            5849     4.27032E-03     6.80835E-03
            5773            5867     4.08353E-03     6.55781E-03
            5774            5849     4.27032E-03     6.80835E-03
            5774            5850     8.63488E-03     11.1980E-03
            5774            5867     4.08353E-03     6.55781E-03
            5774            5868     8.61647E-03     11.1013E-03
            5775            5850     8.63488E-03     11.1980E-03
            5775            5851     13.0555E-03     16.0671E-03
            5775            5868     8.61647E-03     11.1013E-03
            5775            5869     13.2931E-03     15.9230E-03
            5776            5851     13.0555E-03     16.0671E-03
            5776            5852     17.6077E-03     20.9081E-03
            5776            5869     13.2931E-03     15.9230E-03
            5776            5870     17.9964E-03     20.8166E-03
            5777            5852     17.6077E-03     20.9081E-03
            5777            5853     22.2225E-03     25.7118E-03
            5777            5870     17.9964E-03     20.8166E-03
            5777            5871     22.7318E-03     25.6835E-03
            5778            5853     22.2225E-03     25.7118E-03
            5778            5854     26.8649E-03     30.4758E-03
            5778            5871     22.7318E-03     25.6835E-03
            5778            5872     27.4914E-03     30.5236E-03
            5779            5854     26.8649E-03     30.4758E-03
            5779            5855     31.5233E-03     35.2013E-03
            5779            5872     27.4914E-03     30.5236E-03
            5779            5873     32.2585E-03     35.3448E-03
            5780            5855     31.5233E-03     35.2013E-03
            5780            5856     36.1810E-03     39.8943E-03
            5780            5873     32.2585E-03     35.3448E-03
            5780            5874     37.0303E-03     40.1475E-03
            5781            5856     36.1810E-03     39.8943E-03
            5781            5857     40.8330E-03     44.5583E-03
            5781            5874     37.0303E-03     40.1475E-03
            5781            5875     41.8002E-03     44.9357E-03
            5782            5857     40.8330E-03     44.5583E-03
            5782            5858     45.4758E-03     49.1940E-03
            5782            5875     41.8002E-03     44.9357E-03
            5782            5876     46.5719E-03     49.7170E-03
            5783            5858     45.4758E-03     49.1940E-03
            5783            5859     50.1202E-03     53.8164E-03
            5783            5876     46.5719E-03     49.7170E-03
            5783            5877     51.3467E-03     54.4967E-03
            5784            5859     50.1202E-03     53.8164E-03
            5784            5860     54.7770E-03     58.4310E-03
            5784            5877     51.3467E-03     54.4967E-03
            5784            5878     56.1520E-03     59.2996E-03
            5785            5860     54.7770E-03     58.4310E-03
            5785            5861     59.4990E-03     63.0893E-03
            5785            5878     56.1520E-03     59.2996E-03
            5785            5879     61.0068E-03     64.1567E-03
            5786            5861     59.4990E-03     63.0893E-03
            5786            5862     64.3267E-03     67.8303E-03
            5786            5879     61.0068E-03     64.1567E-03
            5786            5880     66.0051E-03     69.1416E-03
            5787            5862     64.3267E-03     67.8303E-03
            5787            5863     69.4274E-03     72.8145E-03
            5787            5880     66.0051E-03     69.1416E-03
            5787            5881     71.2266E-03     74.3710E-03
            5788            5863     69.4274E-03     72.8145E-03
            5788            5864     74.9085E-03     78.1869E-03
            5788            5881     71.2266E-03     74.3710E-03
            5788            5882     76.9478E-03     80.0499E-03
            5789            5864     74.9085E-03     78.1869E-03
            5789            5865     81.2857E-03     84.4504E-03
            5789            5882     76.9478E-03     80.0499E-03
            5789            5883     83.4802E-03     86.5624E-03
            5790            5865     81.2857E-03     84.4504E-03
            5790            5866     88.8457E-03     92.0429E-03
            5790            5883     83.4802E-03     86.5624E-03
            5790            5884     91.5007E-03     94.4134E-03
            5791            1004     99.6922E-03     103.081E-03
            5791            1005     103.198E-03     105.177E-03
            5791            5866     88.8457E-03     92.0429E-03
            5791            5884     91.5007E-03     94.4134E-03
            5792             853     1.88512E-03     4.38895E-03
            5792             854     4.45939E-03     4.88008E-03
            5792            5867     4.08353E-03     6.55781E-03
            5792            5885     5.89923E-03     7.13695E-03
            5793            5867     4.08353E-03     6.55781E-03
            5793            5868     8.61647E-03     11.1013E-03
            5793            5885     5.89923E-03     7.13695E-03
            5793            5886     9.53630E-03     11.6532E-03
            5794            5868     8.61647E-03     11.1013E-03
            5794            5869     13.2931E-03     15.9230E-03
            5794            5886     9.53630E-03     11.6532E-03
            5794            5887     14.0503E-03     16.3056E-03
            5795            5869     13.2931E-03     15.9230E-03
            5795            5870     17.9964E-03     20.8166E-03
            5795            5887     14.0503E-03     16.3056E-03
            5795            5888     18.7254E-03     21.1027E-03
            5796            5870     17.9964E-03     20.8166E-03
            5796            5871     22.7318E-03     25.6835E-03
            5796            5888     18.7254E-03     21.1027E-03
            5796            5889     23.4792E-03     25.9294E-03
            5797            5871     22.7318E-03     25.6835E-03
            5797            5872     27.4914E-03     30.5236E-03
            5797            5889     23.4792E-03     25.9294E-03
            5797            5890     28.2788E-03     30.7739E-03
            5798            5872     27.4914E-03     30.5236E-03
            5798            5873     32.2585E-03     35.3448E-03
            5798            5890     28.2788E-03     30.7739E-03
            5798            5891     33.1029E-03     35.6256E-03
            5799            5873     32.2585E-03     35.3448E-03
            5799            5874     37.0303E-03     40.1475E-03
            5799            5891     33.1029E-03     35.6256E-03
            5799            5892     37.9435E-03     40.4870E-03
            5800            5874     37.0303E-03     40.1475E-03
            5800            5875     41.8002E-03     44.9357E-03
            5800            5892     37.9435E-03     40.4870E-03
            5800            5893     42.7966E-03     45.3611E-03
            5801            5875     41.8002E-03     44.9357E-03
            5801            5876     46.5719E-03     49.7170E-03
            5801            5893     42.7966E-03     45.3611E-03
            5801            5894     47.6615E-03     50.2497E-03
            5802            5876     46.5719E-03     49.7170E-03
            5802            5877     51.3467E-03     54.4967E-03
            5802            5894     47.6615E-03     50.2497E-03
            5802            5895     52.5494E-03     55.1643E-03
            5803            5877     51.3467E-03     54.4967E-03
            5803            5878     56.1520E-03     59.2996E-03
            5803            5895     52.5494E-03     55.1643E-03
            5803            5896     57.4689E-03     60.1237E-03
            5804            5878     56.1520E-03     59.2996E-03
            5804            5879     61.0068E-03     64.1567E-03
            5804            5896     57.4689E-03     60.1237E-03
            5804            5897     62.4605E-03     65.1579E-03
            5805            5879     61.0068E-03     64.1567E-03
            5805            5880     66.0051E-03     69.1416E-03
            5805            5897     62.4605E-03     65.1579E-03
            5805            5898     67.5709E-03     70.3348E-03
            5806            5880     66.0051E-03     69.1416E-03
            5806            5881     71.2266E-03     74.3710E-03
            5806            5898     67.5709E-03     70.3348E-03
            5806            5899     72.9117E-03     75.7272E-03
            5807            5881     71.2266E-03     74.3710E-03
            5807            5882     76.9478E-03     80.0499E-03
            5807            5899     72.9117E-03     75.7272E-03
            5807            5900     78.6899E-03     81.5417E-03
            5808            5882     76.9478E-03     80.0499E-03
            5808            5883     83.4802E-03     86.5624E-03
            5808            5900     78.6899E-03     81.5417E-03
            5808            5901     85.1157E-03     87.9282E-03
            5809            5883     83.4802E-03     86.5624E-03
            5809            5884     91.5007E-03     94.4134E-03
            5809            5901     85.1157E-03     87.9282E-03
            5809            5902     93.1211E-03     95.4846E-03
            5810            1005     103.198E-03     105.177E-03
            5810            1006     102.220E-03     104.124E-03
            5810            5884     91.5007E-03     94.4134E-03
            5810            5902     93.1211E-03     95.4846E-03
            5811             854     4.45939E-03     4.88008E-03
            5811             855     6.98034E-03     7.03457E-03
            5811            5885     5.89923E-03     7.13695E-03
            5811            5903     8.12721E-03     8.73337E-03
            5812            5885     5.89923E-03     7.13695E-03
            5812            5886     9.53630E-03     11.6532E-03
            5812            5903     8.12721E-03     8.73337E-03
            5812            5904     11.1396E-03     12.6517E-03
            5813            5886     9.53630E-03     11.6532E-03
            5813            5887     14.0503E-03     16.3056E-03
            5813            5904     11.1396E-03     12.6517E-03
            5813            5905     15.1962E-03     17.1043E-03
            5814            5887     14.0503E-03     16.3056E-03
            5814            5888     18.7254E-03     21.1027E-03
            5814            5905     15.1962E-03     17.1043E-03
            5814            5906     19.7081E-03     21.6758E-03
            5815            5888     18.7254E-03     21.1027E-03
            5815            5889     23.4792E-03     25.9294E-03
            5815            5906     19.7081E-03     21.6758E-03
            5815            5907     24.3920E-03     26.3840E-03
            5816            5889     23.4792E-03     25.9294E-03
            5816            5890     28.2788E-03     30.7739E-03
            5816            5907     24.3920E-03     26.3840E-03
            5816            5908     29.1611E-03     31.1487E-03
            5817            5890     28.2788E-03     30.7739E-03
            5817            5891     33.1029E-03     35.6256E-03
            5817            5908     29.1611E-03     31.1487E-03
            5817            5909     33.9875E-03     35.9669E-03
            5818            5891     33.1029E-03     35.6256E-03
            5818            5892     37.9435E-03     40.4870E-03
            5818            5909     33.9875E-03     35.9669E-03
            5818            5910     38.8452E-03     40.8331E-03
            5819            5892     37.9435E-03     40.4870E-03
            5819            5893     42.7966E-03     45.3611E-03
            5819            5910     38.8452E-03     40.8331E-03
            5819            5911     43.7326E-03     45.7379E-03
            5820            5893     42.7966E-03     45.3611E-03
            5820            5894     47.6615E-03     50.2497E-03
            5820            5911     43.7326E-03     45.7379E-03
            5820            5912     48.6502E-03     50.6849E-03
            5821            5894     47.6615E-03     50.2497E-03
            5821            5895     52.5494E-03     55.1643E-03
            5821            5912     48.6502E-03     50.6849E-03
            5821            5913     53.6021E-03     55.6807E-03
            5822            5895     52.5494E-03     55.1643E-03
            5822            5896     57.4689E-03     60.1237E-03
            5822            5913     53.6021E-03     55.6807E-03
            5822            5914     58.6000E-03     60.7362E-03
            5823            5896     57.4689E-03     60.1237E-03
            5823            5897     62.4605E-03     65.1579E-03
            5823            5914     58.6000E-03     60.7362E-03
            5823            5915     63.6657E-03     65.8833E-03
            5824            5897     62.4605E-03     65.1579E-03
            5824            5898     67.5709E-03     70.3348E-03
            5824            5915     63.6657E-03     65.8833E-03
            5824            5916     68.8233E-03     71.1408E-03
            5825            5898     67.5709E-03     70.3348E-03
            5825            5899     72.9117E-03     75.7272E-03
            5825            5916     68.8233E-03     71.1408E-03
            5825            5917     74.1667E-03     76.5859E-03
            5826            5899     72.9117E-03     75.7272E-03
            5826            5900     78.6899E-03     81.5417E-03
            5826            5917     74.1667E-03     76.5859E-03
            5826            5918     79.7100E-03     82.2398E-03
            5827            5900     78.6899E-03     81.5417E-03
            5827            5901     85.1157E-03     87.9282E-03
            5827            5918     79.7100E-03     82.2398E-03
            5827            5919     85.8195E-03     88.2597E-03
            5828            5901     85.1157E-03     87.9282E-03
            5828            5902     93.1211E-03     95.4846E-03
            5828            5919     85.8195E-03     88.2597E-03
            5828            5920     92.3088E-03     94.6320E-03
            5829            1006     102.220E-03     104.124E-03
            5829            1007     98.9422E-03     101.114E-03
            5829            5902     93.1211E-03     95.4846E-03
            5829            5920     92.3088E-03     94.6320E-03
            5830             855     6.98034E-03     7.03457E-03
            5830             856     9.67001E-03     9.26790E-03
            5830            5903     8.12721E-03     8.73337E-03
            5830            5921     10.4926E-03     10.8087E-03
            5831            5903     8.12721E-03     8.73337E-03
            5831            5904     11.1396E-03     12.6517E-03
            5831            5921     10.4926E-03     10.8087E-03
            5831            5922     12.9610E-03     14.1905E-03
            5832            5904     11.1396E-03     12.6517E-03
            5832            5905     15.1962E-03     17.1043E-03
            5832            5922     12.9610E-03     14.1905E-03
            5832            5923     16.6414E-03     18.1672E-03
            5833            5905     15.1962E-03     17.1043E-03
            5833            5906     19.7081E-03     21.6758E-03
            5833            5923     16.6414E-03     18.1672E-03
            5833            5924     20.8877E-03     22.5055E-03
            5834            5906     19.7081E-03     21.6758E-03
            5834            5907     24.3920E-03     26.3840E-03
            5834            5924     20.8877E-03     22.5055E-03
            5834            5925     25.4218E-03     26.9776E-03
            5835            5907     24.3920E-03     26.3840E-03
            5835            5908     29.1611E-03     31.1487E-03
            5835            5925     25.4218E-03     26.9776E-03
            5835            5926     30.1087E-03     31.5903E-03
            5836            5908     29.1611E-03     31.1487E-03
            5836            5909     33.9875E-03     35.9669E-03
            5836            5926     30.1087E-03     31.5903E-03
            5836            5927     34.8670E-03     36.3163E-03
            5837            5909     33.9875E-03     35.9669E-03
            5837            5910     38.8452E-03     40.8331E-03
            5837            5927     34.8670E-03     36.3163E-03
            5837            5928     39.6821E-03     41.1206E-03
            5838            5910     38.8452E-03     40.8331E-03
            5838            5911     43.7326E-03     45.7379E-03
            5838            5928     39.6821E-03     41.1206E-03
            5838            5929     44.5436E-03     45.9942E-03
            5839            5911     43.7326E-03     45.7379E-03
            5839            5912     48.6502E-03     50.6849E-03
            5839            5929     44.5436E-03     45.9942E-03
            5839            5930     49.4508E-03     50.9293E-03
            5840            5912     48.6502E-03     50.6849E-03
            5840            5913     53.6021E-03     55.6807E-03
            5840            5930     49.4508E-03     50.9293E-03
            5840            5931     54.4036E-03     55.9264E-03
            5841            5913     53.6021E-03     55.6807E-03
            5841            5914     58.6000E-03     60.7362E-03
            5841            5931     54.4036E-03     55.9264E-03
            5841            5932     59.4098E-03     60.9962E-03
            5842            5914     58.6000E-03     60.7362E-03
            5842            5915     63.6657E-03     65.8833E-03
            5842            5932     59.4098E-03     60.9962E-03
            5842            5933     64.4609E-03     66.1384E-03
            5843            5915     63.6657E-03     65.8833E-03
            5843            5916     68.8233E-03     71.1408E-03
            5843            5933     64.4609E-03     66.1384E-03
            5843            5934     69.5855E-03     71.3726E-03
            5844            5916     68.8233E-03     71.1408E-03
            5844            5917     74.1667E-03     76.5859E-03
            5844            5934     69.5855E-03     71.3726E-03
            5844            5935     74.7294E-03     76.6772E-03
            5845            5917     74.1667E-03     76.5859E-03
            5845            5918     79.7100E-03     82.2398E-03
            5845            5935     74.7294E-03     76.6772E-03
            5845            5936     79.9742E-03     82.0335E-03
            5846            5918     79.7100E-03     82.2398E-03
            5846            5919     85.8195E-03     88.2597E-03
            5846            5936     79.9742E-03     82.0335E-03
            5846            5937     85.1424E-03     87.3543E-03
            5847            5919     85.8195E-03     88.2597E-03
            5847            5920     92.3088E-03     94.6320E-03
            5847            5937     85.1424E-03     87.3543E-03
            5847            5938     90.2040E-03     92.4209E-03
            5848            1007     98.9422E-03     101.114E-03
            5848            1008     95.2618E-03     97.0746E-03
            5848            5920     92.3088E-03     94.6320E-03
            5848            5938     90.2040E-03     92.4209E-03
            5849             856     9.67001E-03     9.26790E-03
            5849             857     12.1870E-03     12.1794E-03
            5849            5921     10.4926E-03     10.8087E-03
            5849            5939     12.8652E-03     13.2302E-03
            5850            5921     10.4926E-03     10.8087E-03
            5850            5922     12.9610E-03     14.1905E-03
            5850            5939     12.8652E-03     13.2302E-03
            5850            5940     14.9755E-03     15.9984E-03
            5851            5922     12.9610E-03     14.1905E-03
            5851            5923     16.6414E-03     18.1672E-03
            5851            5940     14.9755E-03     15.9984E-03
            5851            5941     18.2559E-03     19.6088E-03
            5852            5923     16.6414E-03     18.1672E-03
            5852            5924     20.8877E-03     22.5055E-03
            5852            5941     18.2559E-03     19.6088E-03
            5852            5942     22.2254E-03     23.5044E-03
            5853            5924     20.8877E-03     22.5055E-03
            5853            5925     25.4218E-03     26.9776E-03
            5853            5942     22.2254E-03     23.5044E-03
            5853            5943     26.5831E-03     27.6699E-03
            5854            5925     25.4218E-03     26.9776E-03
            5854            5926     30.1087E-03     31.5903E-03
            5854            5943     26.5831E-03     27.6699E-03
            5854            5944     31.1067E-03     32.0806E-03
            5855            5926     30.1087E-03     31.5903E-03
            5855            5927     34.8670E-03     36.3163E-03
            5855            5944     31.1067E-03     32.0806E-03
            5855            5945     35.7310E-03     36.6456E-03
            5856            5927     34.8670E-03     36.3163E-03
            5856            5928     39.6821E-03     41.1206E-03
            5856            5945     35.7310E-03     36.6456E-03
            5856            5946     40.4307E-03     41.3259E-03
            5857            5928     39.6821E-03     41.1206E-03
            5857            5929     44.5436E-03     45.9942E-03
            5857            5946     40.4307E-03     41.3259E-03
            5857            5947     45.1930E-03     46.0911E-03
            5858            5929     44.5436E-03     45.9942E-03
            5858            5930     49.4508E-03     50.9293E-03
            5858            5947     45.1930E-03     46.0911E-03
            5858            5948     50.0113E-03     50.9282E-03
            5859            5930     49.4508E-03     50.9293E-03
            5859            5931     54.4036E-03     55.9264E-03
            5859            5948     50.0113E-03     50.9282E-03
            5859            5949     54.8847E-03     55.8326E-03
            5860            5931     54.4036E-03     55.9264E-03
            5860            5932     59.4098E-03     60.9962E-03
            5860            5949     54.8847E-03     55.8326E-03
            5860            5950     59.7973E-03     60.7969E-03
            5861            5932     59.4098E-03     60.9962E-03
            5861            5933     64.4609E-03     66.1384E-03
            5861            5950     59.7973E-03     60.7969E-03
            5861            5951     64.7522E-03     65.8189E-03
            5862            5933     64.4609E-03     66.1384E-03
            5862            5934     69.5855E-03     71.3726E-03
            5862            5951     64.7522E-03     65.8189E-03
            5862            5952     69.6904E-03     70.8721E-03
            5863            5934     69.5855E-03     71.3726E-03
            5863            5935     74.7294E-03     76.6772E-03
            5863            5952     69.6904E-03     70.8721E-03
            5863            5953     74.5982E-03     75.9079E-03
            5864            5935     74.7294E-03     76.6772E-03
            5864            5936     79.9742E-03     82.0335E-03
            5864            5953     74.5982E-03     75.9079E-03
            5864            5954     79.3035E-03     80.8310E-03
            5865            5936     79.9742E-03     82.0335E-03
            5865            5937     85.1424E-03     87.3543E-03
            5865            5954     79.3035E-03     80.8310E-03
            5865            5955     83.6421E-03     85.3897E-03
            5866            5937     85.1424E-03     87.3543E-03
            5866            5938     90.2040E-03     92.4209E-03
            5866            5955     83.6421E-03     85.3897E-03
            5866            5956     87.4676E-03     89.3473E-03
            5867            1008     95.2618E-03     97.0746E-03
            5867            1009     90.8909E-03     92.7054E-03
            5867            5938     90.2040E-03     92.4209E-03
            5867            5956     87.4676E-03     89.3473E-03
            5868             857     12.1870E-03     12.1794E-03
            5868             858     14.7346E-03     14.5155E-03
            5868            5939     12.8652E-03     13.2302E-03
            5868            5957     15.3320E-03     15.7015E-03
            5869            5939     12.8652E-03     13.2302E-03
            5869            5940     14.9755E-03     15.9984E-03
            5869            5957     15.3320E-03     15.7015E-03
            5869            5958     17.0817E-03     18.3346E-03
            5870            5940     14.9755E-03     15.9984E-03
            5870            5941     18.2559E-03     19.6088E-03
            5870            5958     17.0817E-03     18.3346E-03
            5870            5959     19.9945E-03     21.2834E-03
            5871            5941     18.2559E-03     19.6088E-03
            5871            5942     22.2254E-03     23.5044E-03
            5871            5959     19.9945E-03     21.2834E-03
            5871            5960     23.7752E-03     24.6186E-03
            5872            5942     22.2254E-03     23.5044E-03
            5872            5943     26.5831E-03     27.6699E-03
            5872            5960     23.7752E-03     24.6186E-03
            5872            5961     27.8922E-03     28.4716E-03
            5873            5943     26.5831E-03     27.6699E-03
            5873            5944     31.1067E-03     32.0806E-03
            5873            5961     27.8922E-03     28.4716E-03
            5873            5962     32.1783E-03     32.6284E-03
            5874            5944     31.1067E-03     32.0806E-03
            5874            5945     35.7310E-03     36.6456E-03
            5874            5962     32.1783E-03     32.6284E-03
            5874            5963     36.5957E-03     36.9819E-03
            5875            5945     35.7310E-03     36.6456E-03
            5875            5946     40.4307E-03     41.3259E-03
            5875            5963     36.5957E-03     36.9819E-03
            5875            5964     41.1029E-03     41.4665E-03
            5876            5946     40.4307E-03     41.3259E-03
            5876            5947     45.1930E-03     46.0911E-03
            5876            5964     41.1029E-03     41.4665E-03
            5876            5965     45.6856E-03     46.0419E-03
            5877            5947     45.1930E-03     46.0911E-03
            5877            5948     50.0113E-03     50.9282E-03
            5877            5965     45.6856E-03     46.0419E-03
            5877            5966     50.3305E-03     50.6873E-03
            5878            5948     50.0113E-03     50.9282E-03
            5878            5949     54.8847E-03     55.8326E-03
            5878            5966     50.3305E-03     50.6873E-03
            5878            5967     55.0195E-03     55.3858E-03
            5879            5949     54.8847E-03     55.8326E-03
            5879            5950     59.7973E-03     60.7969E-03
            5879            5967     55.0195E-03     55.3858E-03
            5879            5968     59.7455E-03     60.1234E-03
            5880            5950     59.7973E-03     60.7969E-03
            5880            5951     64.7522E-03     65.8189E-03
            5880            5968     59.7455E-03     60.1234E-03
            5880            5969     64.4632E-03     64.8770E-03
            5881            5951     64.7522E-03     65.8189E-03
            5881            5952     69.6904E-03     70.8721E-03
            5881            5969     64.4632E-03     64.8770E-03
            5881            5970     69.1436E-03     69.6039E-03
            5882            5952     69.6904E-03     70.8721E-03
            5882            5953     74.5982E-03     75.9079E-03
            5882            5970     69.1436E-03     69.6039E-03
            5882            5971     73.6656E-03     74.2334E-03
            5883            5953     74.5982E-03     75.9079E-03
            5883            5954     79.3035E-03     80.8310E-03
            5883            5971     73.6656E-03     74.2334E-03
            5883            5972     77.8783E-03     78.6067E-03
            5884            5954     79.3035E-03     80.8310E-03
            5884            5955     83.6421E-03     85.3897E-03
            5884            5972     77.8783E-03     78.6067E-03
            5884            5973     81.5437E-03     82.5194E-03
            5885            5955     83.6421E-03     85.3897E-03
            5885            5956     87.4676E-03     89.3473E-03
            5885            5973     81.5437E-03     82.5194E-03
            5885            5974     84.2562E-03     85.5801E-03
            5886            1009     90.8909E-03     92.7054E-03
            5886            1010     86.2040E-03     87.6393E-03
            5886            5956     87.4676E-03     89.3473E-03
            5886            5974     84.2562E-03     85.5801E-03
            5887             858     14.7346E-03     14.5155E-03
            5887             859     17.6285E-03     18.2885E-03
            5887            5957     15.3320E-03     15.7015E-03
            5887            5975     17.7316E-03     19.2327E-03
            5888            5957     15.3320E-03     15.7015E-03
            5888            5958     17.0817E-03     18.3346E-03
            5888            5975     17.7316E-03     19.2327E-03
            5888            5976     19.0902E-03     20.9096E-03
            5889            5958     17.0817E-03     18.3346E-03
            5889            5959     19.9945E-03     21.2834E-03
            5889            5976     19.0902E-03     20.9096E-03
            5889            5977     22.0643E-03     22.9188E-03
            5890            5959     19.9945E-03     21.2834E-03
            5890            5960     23.7752E-03     24.6186E-03
            5890            5977     22.0643E-03     22.9188E-03
            5890            5978     25.6001E-03     25.8733E-03
            5891            5960     23.7752E-03     24.6186E-03
            5891            5961     27.8922E-03     28.4716E-03
            5891            5978     25.6001E-03     25.8733E-03
            5891            5979     29.3764E-03     29.4222E-03
            5892            5961     27.8922E-03     28.4716E-03
            5892            5962     32.1783E-03     32.6284E-03
            5892            5979     29.3764E-03     29.4222E-03
            5892            5980     33.3683E-03     33.3016E-03
            5893            5962     32.1783E-03     32.6284E-03
            5893            5963     36.5957E-03     36.9819E-03
            5893            5980     33.3683E-03     33.3016E-03
            5893            5981     37.5044E-03     37.3944E-03
            5894            5963     36.5957E-03     36.9819E-03
            5894            5964     41.1029E-03     41.4665E-03
            5894            5981     37.5044E-03     37.3944E-03
            5894            5982     41.7523E-03     41.6151E-03
            5895            5964     41.1029E-03     41.4665E-03
            5895            5965     45.6856E-03     46.0419E-03
            5895            5982     41.7523E-03     41.6151E-03
            5895            5983     46.0804E-03     45.9217E-03
            5896            5965     45.6856E-03     46.0419E-03
            5896            5966     50.3305E-03     50.6873E-03
            5896            5983     46.0804E-03     45.9217E-03
            5896            5984     50.4598E-03     50.2799E-03
            5897            5966     50.3305E-03     50.6873E-03
            5897            5967     55.0195E-03     55.3858E-03
            5897            5984     50.4598E-03     50.2799E-03
            5897            5985     54.8735E-03     54.6630E-03
            5898            5967     55.0195E-03     55.3858E-03
            5898            5968     59.7455E-03     60.1234E-03
            5898            5985     54.8735E-03     54.6630E-03
            5898            5986     59.2835E-03     59.0454E-03
            5899            5968     59.7455E-03     60.1234E-03
            5899            5969     64.4632E-03     64.8770E-03
            5899            5986     59.2835E-03     59.0454E-03
            5899            5987     63.6631E-03     63.3845E-03
            5900            5969     64.4632E-03     64.8770E-03
            5900            5970     69.1436E-03     69.6039E-03
            5900            5987     63.6631E-03     63.3845E-03
            5900            5988     67.9358E-03     67.6323E-03
            5901            5970     69.1436E-03     69.6039E-03
            5901            5971     73.6656E-03     74.2334E-03
            5901            5988     67.9358E-03     67.6323E-03
            5901            5989     72.0075E-03     71.6882E-03
            5902            5971     73.6656E-03     74.2334E-03
            5902            5972     77.8783E-03     78.6067E-03
            5902            5989     72.0075E-03     71.6882E-03
            5902            5990     75.7193E-03     75.4228E-03
            5903            5972     77.8783E-03     78.6067E-03
            5903            5973     81.5437E-03     82.5194E-03
            5903            5990     75.7193E-03     75.4228E-03
            5903            5991     78.7806E-03     78.6174E-03
            5904            5973     81.5437E-03     82.5194E-03
            5904            5974     84.2562E-03     85.5801E-03
            5904            5991     78.7806E-03     78.6174E-03
            5904            5992     80.8944E-03     80.9575E-03
            5905            1010     86.2040E-03     87.6393E-03
            5905            1011     81.3794E-03     81.8684E-03
            5905            5974     84.2562E-03     85.5801E-03
            5905            5992     80.8944E-03     80.9575E-03
            5906             859     17.6285E-03     18.2885E-03
            5906             860     18.8361E-03     22.7720E-03
            5906            5975     17.7316E-03     19.2327E-03
            5906            5993     19.6754E-03     22.5179E-03
            5907            5975     17.7316E-03     19.2327E-03
            5907            5976     19.0902E-03     20.9096E-03
            5907            5993     19.6754E-03     22.5179E-03
            5907            5994     21.8159E-03     22.7891E-03
            5908            5976     19.0902E-03     20.9096E-03
            5908            5977     22.0643E-03     22.9188E-03
            5908            5994     21.8159E-03     22.7891E-03
            5908            5995     24.6030E-03     24.5525E-03
            5909            5977     22.0643E-03     22.9188E-03
            5909            5978     25.6001E-03     25.8733E-03
            5909            5995     24.6030E-03     24.5525E-03
            5909            5996     27.6915E-03     27.3334E-03
            5910            5978     25.6001E-03     25.8733E-03
            5910            5979     29.3764E-03     29.4222E-03
            5910            5996     27.6915E-03     27.3334E-03
            5910            5997     31.0718E-03     30.6117E-03
            5911            5979     29.3764E-03     29.4222E-03
            5911            5980     33.3683E-03     33.3016E-03
            5911            5997     31.0718E-03     30.6117E-03
            5911            5998     34.7146E-03     34.2039E-03
            5912            5980     33.3683E-03     33.3016E-03
            5912            5981     37.5044E-03     37.3944E-03
            5912            5998     34.7146E-03     34.2039E-03
            5912            5999     38.5295E-03     37.9882E-03
            5913            5981     37.5044E-03     37.3944E-03
            5913            5982     41.7523E-03     41.6151E-03
            5913            5999     38.5295E-03     37.9882E-03
            5913            6000     42.4725E-03     41.8925E-03
            5914            5982     41.7523E-03     41.6151E-03
            5914            5983     46.0804E-03     45.9217E-03
            5914            6000     42.4725E-03     41.8925E-03
            5914            6001     46.4847E-03     45.8634E-03
            5915            5983     46.0804E-03     45.9217E-03
            5915            5984     50.4598E-03     50.2799E-03
            5915            6001     46.4847E-03     45.8634E-03
            5915            6002     50.5351E-03     49.8574E-03
            5916            5984     50.4598E-03     50.2799E-03
            5916            5985     54.8735E-03     54.6630E-03
            5916            6002     50.5351E-03     49.8574E-03
            5916            6003     54.5769E-03     53.8370E-03
            5917            5985     54.8735E-03     54.6630E-03
            5917            5986     59.2835E-03     59.0454E-03
            5917            6003     54.5769E-03     53.8370E-03
            5917            6004     58.5799E-03     57.7508E-03
            5918            5986     59.2835E-03     59.0454E-03
            5918            5987     63.6631E-03     63.3845E-03
            5918            6004     58.5799E-03     57.7508E-03
            5918            6005     62.4857E-03     61.5557E-03
            5919            5987     63.6631E-03     63.3845E-03
            5919            5988     67.9358E-03     67.6323E-03
            5919            6005     62.4857E-03     61.5557E-03
            5919            6006     66.2352E-03     65.1636E-03
            5920            5988     67.9358E-03     67.6323E-03
            5920            5989     72.0075E-03     71.6882E-03
            5920            6006     66.2352E-03     65.1636E-03
            5920            6007     69.7351E-03     68.4964E-03
            5921            5989     72.0075E-03     71.6882E-03
            5921            5990     75.7193E-03     75.4228E-03
            5921            6007     69.7351E-03     68.4964E-03
            5921            6008     72.8398E-03     71.4049E-03
            5922            5990     75.7193E-03     75.4228E-03
            5922            5991     78.7806E-03     78.6174E-03
            5922            6008     72.8398E-03     71.4049E-03
            5922            6009     75.3737E-03     73.7078E-03
            5923            5991     78.7806E-03     78.6174E-03
            5923            5992     80.8944E-03     80.9575E-03
            5923            6009     75.3737E-03     73.7078E-03
            5923            6010     77.0061E-03     75.1688E-03
            5924            1011     81.3794E-03     81.8684E-03
            5924            1012     77.1030E-03     75.2080E-03
            5924            5992     80.8944E-03     80.9575E-03
            5924            6010     77.0061E-03     75.1688E-03
            5925             860     18.8361E-03     22.7720E-03
            5925             861     11.2991E-03     14.5611E-03
            5925            5993     19.6754E-03     22.5179E-03
            5925            6011     12.4034E-03     14.7067E-03
            5926            5993     19.6754E-03     22.5179E-03
            5926            5994     21.8159E-03     22.7891E-03
            5926            6011     12.4034E-03     14.7067E-03
            5926            6012     14.4267E-03     15.5531E-03
            5927            5994     21.8159E-03     22.7891E-03
            5927            5995     24.6030E-03     24.5525E-03
            5927            6012     14.4267E-03     15.5531E-03
            5927            6013     16.4616E-03     17.4490E-03
            5928            5995     24.6030E-03     24.5525E-03
            5928            5996     27.6915E-03     27.3334E-03
            5928            6013     16.4616E-03     17.4490E-03
            5928            6014     18.8199E-03     19.9036E-03
            5929            5996     27.6915E-03     27.3334E-03
            5929            5997     31.0718E-03     30.6117E-03
            5929            6014     18.8199E-03     19.9036E-03
            5929            6015     21.4287E-03     22.5704E-03
            5930            5997     31.0718E-03     30.6117E-03
            5930            5998     34.7146E-03     34.2039E-03
            5930            6015     21.4287E-03     22.5704E-03
            5930            6016     24.2121E-03     25.4077E-03
            5931            5998     34.7146E-03     34.2039E-03
            5931            5999     38.5295E-03     37.9882E-03
            5931            6016     24.2121E-03     25.4077E-03
            5931            6017     27.1163E-03     28.3332E-03
            5932            5999     38.5295E-03     37.9882E-03
            5932            6000     42.4725E-03     41.8925E-03
            5932            6017     27.1163E-03     28.3332E-03
            5932            6018     30.0990E-03     31.3144E-03
            5933            6000     42.4725E-03     41.8925E-03
            5933            6001     46.4847E-03     45.8634E-03
            5933            6018     30.0990E-03     31.3144E-03
            5933            6019     33.1247E-03     34.3260E-03
            5934            6001     46.4847E-03     45.8634E-03
            5934            6002     50.5351E-03     49.8574E-03
            5934            6019     33.1247E-03     34.3260E-03
            5934            6020     36.1749E-03     37.3398E-03
            5935            6002     50.5351E-03     49.8574E-03
            5935            6003     54.5769E-03     53.8370E-03
            5935            6020     36.1749E-03     37.3398E-03
            5935            6021     39.2253E-03     40.3477E-03
            5936            6003     54.5769E-03     53.8370E-03
            5936            6004     58.5799E-03     57.7508E-03
            5936            6021     39.2253E-03     40.3477E-03
            5936            6022     42.2778E-03     43.3264E-03
            5937            6004     58.5799E-03     57.7508E-03
            5937            6005     62.4857E-03     61.5557E-03
            5937            6022     42.2778E-03     43.3264E-03
            5937            6023     45.3100E-03     46.2776E-03
            5938            6005     62.4857E-03     61.5557E-03
            5938            6006     66.2352E-03     65.1636E-03
            5938            6023     45.3100E-03     46.2776E-03
            5938            6024     48.3609E-03     49.1938E-03
            5939            6006     66.2352E-03     65.1636E-03
            5939            6007     69.7351E-03     68.4964E-03
            5939            6024     48.3609E-03     49.1938E-03
            5939            6025     51.3992E-03     52.1020E-03
            5940            6007     69.7351E-03     68.4964E-03
            5940            6008     72.8398E-03     71.4049E-03
            5940            6025     51.3992E-03     52.1020E-03
            5940            6026     54.5541E-03     55.0407E-03
            5941            6008     72.8398E-03     71.4049E-03
            5941            6009     75.3737E-03     73.7078E-03
            5941            6026     54.5541E-03     55.0407E-03
            5941            6027     57.7703E-03     58.1250E-03
            5942            6009     75.3737E-03     73.7078E-03
            5942            6010     77.0061E-03     75.1688E-03
            5942            6027     57.7703E-03     58.1250E-03
            5942            6028     61.4275E-03     61.5880E-03
            5943            1012     77.1030E-03     75.2080E-03
            5943            1013     65.4225E-03     65.7706E-03
            5943            6010     77.0061E-03     75.1688E-03
            5943            6028     61.4275E-03     61.5880E-03
            5944             861     11.2991E-03     14.5611E-03
            5944             862     4.96511E-03     5.57510E-03
            5944            6011     12.4034E-03     14.7067E-03
            5944            6029     5.18007E-03     6.30610E-03
            5945            6011     12.4034E-03     14.7067E-03
            5945            6012     14.4267E-03     15.5531E-03
            5945            6029     5.18007E-03     6.30610E-03
            5945            6030     6.05797E-03     7.91421E-03
            5946            6012     14.4267E-03     15.5531E-03
            5946            6013     16.4616E-03     17.4490E-03
            5946            6030     6.05797E-03     7.91421E-03
            5946            6031     7.59021E-03     9.80598E-03
            5947            6013     16.4616E-03     17.4490E-03
            5947            6014     18.8199E-03     19.9036E-03
            5947            6031     7.59021E-03     9.80598E-03
            5947            6032     9.42010E-03     11.8962E-03
            5948            6014     18.8199E-03     19.9036E-03
            5948            6015     21.4287E-03     22.5704E-03
            5948            6032     9.42010E-03     11.8962E-03
            5948            6033     11.4072E-03     14.0676E-03
            5949            6015     21.4287E-03     22.5704E-03
            5949            6016     24.2121E-03     25.4077E-03
            5949            6033     11.4072E-03     14.0676E-03
            5949            6034     13.4919E-03     16.2741E-03
            5950            6016     24.2121E-03     25.4077E-03
            5950            6017     27.1163E-03     28.3332E-03
            5950            6034     13.4919E-03     16.2741E-03
            5950            6035     15.6307E-03     18.4989E-03
            5951            6017     27.1163E-03     28.3332E-03
            5951            6018     30.0990E-03     31.3144E-03
            5951            6035     15.6307E-03     18.4989E-03
            5951            6036     17.8067E-03     20.7268E-03
            5952            6018     30.0990E-03     31.3144E-03
            5952            6019     33.1247E-03     34.3260E-03
            5952            6036     17.8067E-03     20.7268E-03
            5952            6037     20.0089E-03     22.9615E-03
            5953            6019     33.1247E-03     34.3260E-03
            5953            6020     36.1749E-03     37.3398E-03
            5953            6037     20.0089E-03     22.9615E-03
            5953            6038     22.2343E-03     25.2000E-03
            5954            6020     36.1749E-03     37.3398E-03
            5954            6021     39.2253E-03     40.3477E-03
            5954            6038     22.2343E-03     25.2000E-03
            5954            6039     24.4962E-03     27.4644E-03
            5955            6021     39.2253E-03     40.3477E-03
            5955            6022     42.2778E-03     43.3264E-03
            5955            6039     24.4962E-03     27.4644E-03
            5955            6040     26.8113E-03     29.7673E-03
            5956            6022     42.2778E-03     43.3264E-03
            5956            6023     45.3100E-03     46.2776E-03
            5956            6040     26.8113E-03     29.7673E-03
            5956            6041     29.2392E-03     32.1748E-03
            5957            6023     45.3100E-03     46.2776E-03
            5957            6024     48.3609E-03     49.1938E-03
            5957            6041     29.2392E-03     32.1748E-03
            5957            6042     31.8371E-03     34.7428E-03
            5958            6024     48.3609E-03     49.1938E-03
            5958            6025     51.3992E-03     52.1020E-03
            5958            6042     31.8371E-03     34.7428E-03
            5958            6043     34.7790E-03     37.6502E-03
            5959            6025     51.3992E-03     52.1020E-03
            5959            6026     54.5541E-03     55.0407E-03
            5959            6043     34.7790E-03     37.6502E-03
            5959            6044     38.2082E-03     41.0663E-03
            5960            6026     54.5541E-03     55.0407E-03
            5960            6027     57.7703E-03     58.1250E-03
            5960            6044     38.2082E-03     41.0663E-03
            5960            6045     42.6149E-03     45.4845E-03
            5961            6027     57.7703E-03     58.1250E-03
            5961            6028     61.4275E-03     61.5880E-03
            5961            6045     42.6149E-03     45.4845E-03
            5961            6046     48.3537E-03     51.3618E-03
            5962            1013     65.4225E-03     65.7706E-03
            5962            1014     57.3148E-03     60.5990E-03
            5962            6028     61.4275E-03     61.5880E-03
            5962            6046     48.3537E-03     51.3618E-03
            5963             862     4.96511E-03     5.57510E-03
            5963             863     6.87296E-03     6.27960E-03
            5963            6029     5.18007E-03     6.30610E-03
            5963            6047     6.99444E-03     6.97880E-03
            5964            6029     5.18007E-03     6.30610E-03
            5964            6030     6.05797E-03     7.91421E-03
            5964            6047     6.99444E-03     6.97880E-03
            5964            6048     7.62254E-03     8.55684E-03
            5965            6030     6.05797E-03     7.91421E-03
            5965            6031     7.59021E-03     9.80598E-03
            5965            6048     7.62254E-03     8.55684E-03
            5965            6049     8.90405E-03     10.3985E-03
            5966            6031     7.59021E-03     9.80598E-03
            5966            6032     9.42010E-03     11.8962E-03
            5966            6049     8.90405E-03     10.3985E-03
            5966            6050     10.5829E-03     12.3992E-03
            5967            6032     9.42010E-03     11.8962E-03
            5967            6033     11.4072E-03     14.0676E-03
            5967            6050     10.5829E-03     12.3992E-03
            5967            6051     12.4727E-03     14.5131E-03
            5968            6033     11.4072E-03     14.0676E-03
            5968            6034     13.4919E-03     16.2741E-03
            5968            6051     12.4727E-03     14.5131E-03
            5968            6052     14.4961E-03     16.6854E-03
            5969            6034     13.4919E-03     16.2741E-03
            5969            6035     15.6307E-03     18.4989E-03
            5969            6052     14.4961E-03     16.6854E-03
            5969            6053     16.6028E-03     18.8891E-03
            5970            6035     15.6307E-03     18.4989E-03
            5970            6036     17.8067E-03     20.7268E-03
            5970            6053     16.6028E-03     18.8891E-03
            5970            6054     18.7638E-03     21.1162E-03
            5971            6036     17.8067E-03     20.7268E-03
            5971            6037     20.0089E-03     22.9615E-03
            5971            6054     18.7638E-03     21.1162E-03
            5971            6055     20.9612E-03     23.3564E-03
            5972            6037     20.0089E-03     22.9615E-03
            5972            6038     22.2343E-03     25.2000E-03
            5972            6055     20.9612E-03     23.3564E-03
            5972            6056     23.1914E-03     25.6162E-03
            5973            6038     22.2343E-03     25.2000E-03
            5973            6039     24.4962E-03     27.4644E-03
            5973            6056     23.1914E-03     25.6162E-03
            5973            6057     25.4540E-03     27.8990E-03
            5974            6039     24.4962E-03     27.4644E-03
            5974            6040     26.8113E-03     29.7673E-03
            5974            6057     25.4540E-03     27.8990E-03
            5974            6058     27.7769E-03     30.2347E-03
            5975            6040     26.8113E-03     29.7673E-03
            5975            6041     29.2392E-03     32.1748E-03
            5975            6058     27.7769E-03     30.2347E-03
            5975            6059     30.1872E-03     32.6562E-03
            5976            6041     29.2392E-03     32.1748E-03
            5976            6042     31.8371E-03     34.7428E-03
            5976            6059     30.1872E-03     32.6562E-03
            5976            6060     32.7858E-03     35.2524E-03
            5977            6042     31.8371E-03     34.7428E-03
            5977            6043     34.7790E-03     37.6502E-03
            5977            6060     32.7858E-03     35.2524E-03
            5977            6061     35.6687E-03     38.1397E-03
            5978            6043     34.7790E-03     37.6502E-03
            5978            6044     38.2082E-03     41.0663E-03
            5978            6061     35.6687E-03     38.1397E-03
            5978            6062     39.1213E-03     41.5512E-03
            5979            6044     38.2082E-03     41.0663E-03
            5979            6045     42.6149E-03     45.4845E-03
            5979            6062     39.1213E-03     41.5512E-03
            5979            6063     43.4643E-03     45.8549E-03
            5980            6045     42.6149E-03     45.4845E-03
            5980            6046     48.3537E-03     51.3618E-03
            5980            6063     43.4643E-03     45.8549E-03
            5980            6064     49.3880E-03     51.6046E-03
            5981            1014     57.3148E-03     60.5990E-03
            5981            1015     58.9797E-03     60.3698E-03
            5981            6046     48.3537E-03     51.3618E-03
            5981            6064     49.3880E-03     51.6046E-03
            5982             863     6.87296E-03     6.27960E-03
            5982             864     8.20632E-03     7.43962E-03
            5982            6047     6.99444E-03     6.97880E-03
            5982            6065     8.43489E-03     7.95527E-03
            5983            6047     6.99444E-03     6.97880E-03
            5983            6048     7.62254E-03     8.55684E-03
            5983            6065     8.43489E-03     7.95527E-03
            5983            6066     9.09885E-03     9.30351E-03
            5984            6048     7.62254E-03     8.55684E-03
            5984            6049     8.90405E-03     10.3985E-03
            5984            6066     9.09885E-03     9.30351E-03
            5984            6067     10.2106E-03     11.0618E-03
            5985            6049     8.90405E-03     10.3985E-03
            5985            6050     10.5829E-03     12.3992E-03
            5985            6067     10.2106E-03     11.0618E-03
            5985            6068     11.7394E-03     12.9870E-03
            5986            6050     10.5829E-03     12.3992E-03
            5986            6051     12.4727E-03     14.5131E-03
            5986            6068     11.7394E-03     12.9870E-03
            5986            6069     13.5382E-03     15.0328E-03
            5987            6051     12.4727E-03     14.5131E-03
            5987            6052     14.4961E-03     16.6854E-03
            5987            6069     13.5382E-03     15.0328E-03
            5987            6070     15.5012E-03     17.1548E-03
            5988            6052     14.4961E-03     16.6854E-03
            5988            6053     16.6028E-03     18.8891E-03
            5988            6070     15.5012E-03     17.1548E-03
            5988            6071     17.5779E-03     19.3320E-03
            5989            6053     16.6028E-03     18.8891E-03
            5989            6054     18.7638E-03     21.1162E-03
            5989            6071     17.5779E-03     19.3320E-03
            5989            6072     19.7267E-03     21.5479E-03
            5990            6054     18.7638E-03     21.1162E-03
            5990            6055     20.9612E-03     23.3564E-03
            5990            6072     19.7267E-03     21.5479E-03
            5990            6073     21.9298E-03     23.7980E-03
            5991            6055     20.9612E-03     23.3564E-03
            5991            6056     23.1914E-03     25.6162E-03
            5991            6073     21.9298E-03     23.7980E-03
            5991            6074     24.1725E-03     26.0790E-03
            5992            6056     23.1914E-03     25.6162E-03
            5992            6057     25.4540E-03     27.8990E-03
            5992            6074     24.1725E-03     26.0790E-03
            5992            6075     26.4599E-03     28.3980E-03
            5993            6057     25.4540E-03     27.8990E-03
            5993            6058     27.7769E-03     30.2347E-03
            5993            6075     26.4599E-03     28.3980E-03
            5993            6076     28.7972E-03     30.7695E-03
            5994            6058     27.7769E-03     30.2347E-03
            5994            6059     30.1872E-03     32.6562E-03
            5994            6076     28.7972E-03     30.7695E-03
            5994            6077     31.2264E-03     33.2250E-03
            5995            6059     30.1872E-03     32.6562E-03
            5995            6060     32.7858E-03     35.2524E-03
            5995            6077     31.2264E-03     33.2250E-03
            5995            6078     33.7937E-03     35.8253E-03
            5996            6060     32.7858E-03     35.2524E-03
            5996            6061     35.6687E-03     38.1397E-03
            5996            6078     33.7937E-03     35.8253E-03
            5996            6079     36.6288E-03     38.6588E-03
            5997            6061     35.6687E-03     38.1397E-03
            5997            6062     39.1213E-03     41.5512E-03
            5997            6079     36.6288E-03     38.6588E-03
            5997            6080     39.9259E-03     41.9298E-03
            5998            6062     39.1213E-03     41.5512E-03
            5998            6063     43.4643E-03     45.8549E-03
            5998            6080     39.9259E-03     41.9298E-03
            5998            6081     43.9664E-03     45.8521E-03
            5999            6063     43.4643E-03     45.8549E-03
            5999            6064     49.3880E-03     51.6046E-03
            5999            6081     43.9664E-03     45.8521E-03
            5999            6082     49.6567E-03     51.0946E-03
            6000            1015     58.9797E-03     60.3698E-03
            6000            1016     56.9099E-03     57.9319E-03
            6000            6064     49.3880E-03     51.6046E-03
            6000            6082     49.6567E-03     51.0946E-03
            6001             864     8.20632E-03     7.43962E-03
            6001             865     9.57655E-03     8.63598E-03
            6001            6065     8.43489E-03     7.95527E-03
            6001            6083     9.74297E-03     9.10593E-03
            6002            6065     8.43489E-03     7.95527E-03
            6002            6066     9.09885E-03     9.30351E-03
            6002            6083     9.74297E-03     9.10593E-03
            6002            6084     10.3512E-03     10.2569E-03
            6003            6066     9.09885E-03     9.30351E-03
            6003            6067     10.2106E-03     11.0618E-03
            6003            6084     10.3512E-03     10.2569E-03
            6003            6085     11.4273E-03     11.8203E-03
            6004            6067     10.2106E-03     11.0618E-03
            6004            6068     11.7394E-03     12.9870E-03
            6004            6085     11.4273E-03     11.8203E-03
            6004            6086     12.8523E-03     13.6496E-03
            6005            6068     11.7394E-03     12.9870E-03
            6005            6069     13.5382E-03     15.0328E-03
            6005            6086     12.8523E-03     13.6496E-03
            6005            6087     14.5631E-03     15.6010E-03
            6006            6069     13.5382E-03     15.0328E-03
            6006            6070     15.5012E-03     17.1548E-03
            6006            6087     14.5631E-03     15.6010E-03
            6006            6088     16.4758E-03     17.6563E-03
            6007            6070     15.5012E-03     17.1548E-03
            6007            6071     17.5779E-03     19.3320E-03
            6007            6088     16.4758E-03     17.6563E-03
            6007            6089     18.5175E-03     19.7860E-03
            6008            6071     17.5779E-03     19.3320E-03
            6008            6072     19.7267E-03     21.5479E-03
            6008            6089     18.5175E-03     19.7860E-03
            6008            6090     20.6554E-03     21.9781E-03
            6009            6072     19.7267E-03     21.5479E-03
            6009            6073     21.9298E-03     23.7980E-03
            6009            6090     20.6554E-03     21.9781E-03
            6009            6091     22.8587E-03     24.2248E-03
            6010            6073     21.9298E-03     23.7980E-03
            6010            6074     24.1725E-03     26.0790E-03
            6010            6091     22.8587E-03     24.2248E-03
            6010            6092     25.1165E-03     26.5193E-03
            6011            6074     24.1725E-03     26.0790E-03
            6011            6075     26.4599E-03     28.3980E-03
            6011            6092     25.1165E-03     26.5193E-03
            6011            6093     27.4210E-03     28.8638E-03
            6012            6075     26.4599E-03     28.3980E-03
            6012            6076     28.7972E-03     30.7695E-03
            6012            6093     27.4210E-03     28.8638E-03
            6012            6094     29.7766E-03     31.2593E-03
            6013            6076     28.7972E-03     30.7695E-03
            6013            6077     31.2264E-03     33.2250E-03
            6013            6094     29.7766E-03     31.2593E-03
            6013            6095     32.1958E-03     33.7272E-03
            6014            6077     31.2264E-03     33.2250E-03
            6014            6078     33.7937E-03     35.8253E-03
            6014            6095     32.1958E-03     33.7272E-03
            6014            6096     34.7043E-03     36.2793E-03
            6015            6078     33.7937E-03     35.8253E-03
            6015            6079     36.6288E-03     38.6588E-03
            6015            6096     34.7043E-03     36.2793E-03
            6015            6097     37.3805E-03     38.9867E-03
            6016            6079     36.6288E-03     38.6588E-03
            6016            6080     39.9259E-03     41.9298E-03
            6016            6097     37.3805E-03     38.9867E-03
            6016            6098     40.2927E-03     41.9002E-03
            6017            6080     39.9259E-03     41.9298E-03
            6017            6081     43.9664E-03     45.8521E-03
            6017            6098     40.2927E-03     41.9002E-03
            6017            6099     43.8097E-03     45.2557E-03
            6018            6081     43.9664E-03     45.8521E-03
            6018            6082     49.6567E-03     51.0946E-03
            6018            6099     43.8097E-03     45.2557E-03
            6018            6100     47.9952E-03     49.2640E-03
            6019            1016     56.9099E-03     57.9319E-03
            6019            1017     53.0196E-03     54.1501E-03
            6019            6082     49.6567E-03     51.0946E-03
            6019            6100     47.9952E-03     49.2640E-03
            6020             865     9.57655E-03     8.63598E-03
            6020             866     10.7801E-03     9.88972E-03
            6020            6083     9.74297E-03     9.10593E-03
            6020            6101     10.9691E-03     10.2539E-03
            6021            6083     9.74297E-03     9.10593E-03
            6021            6084     10.3512E-03     10.2569E-03
            6021            6101     10.9691E-03     10.2539E-03
            6021            6102     11.5464E-03     11.2805E-03
            6022            6084     10.3512E-03     10.2569E-03
            6022            6085     11.4273E-03     11.8203E-03
            6022            6102     11.5464E-03     11.2805E-03
            6022            6103     12.5293E-03     12.7120E-03
            6023            6085     11.4273E-03     11.8203E-03
            6023            6086     12.8523E-03     13.6496E-03
            6023            6103     12.5293E-03     12.7120E-03
            6023            6104     13.8902E-03     14.3676E-03
            6024            6086     12.8523E-03     13.6496E-03
            6024            6087     14.5631E-03     15.6010E-03
            6024            6104     13.8902E-03     14.3676E-03
            6024            6105     15.5365E-03     16.2072E-03
            6025            6087     14.5631E-03     15.6010E-03
            6025            6088     16.4758E-03     17.6563E-03
            6025            6105     15.5365E-03     16.2072E-03
            6025            6106     17.3898E-03     18.1603E-03
            6026            6088     16.4758E-03     17.6563E-03
            6026            6089     18.5175E-03     19.7860E-03
            6026            6106     17.3898E-03     18.1603E-03
            6026            6107     19.3973E-03     20.2148E-03
            6027            6089     18.5175E-03     19.7860E-03
            6027            6090     20.6554E-03     21.9781E-03
            6027            6107     19.3973E-03     20.2148E-03
            6027            6108     21.5077E-03     22.3592E-03
            6028            6090     20.6554E-03     21.9781E-03
            6028            6091     22.8587E-03     24.2248E-03
            6028            6108     21.5077E-03     22.3592E-03
            6028            6109     23.6975E-03     24.5765E-03
            6029            6091     22.8587E-03     24.2248E-03
            6029            6092     25.1165E-03     26.5193E-03
            6029            6109     23.6975E-03     24.5765E-03
            6029            6110     25.9501E-03     26.8603E-03
            6030            6092     25.1165E-03     26.5193E-03
            6030            6093     27.4210E-03     28.8638E-03
            6030            6110     25.9501E-03     26.8603E-03
            6030            6111     28.2518E-03     29.1974E-03
            6031            6093     27.4210E-03     28.8638E-03
            6031            6094     29.7766E-03     31.2593E-03
            6031            6111     28.2518E-03     29.1974E-03
            6031            6112     30.5983E-03     31.5888E-03
            6032            6094     29.7766E-03     31.2593E-03
            6032            6095     32.1958E-03     33.7272E-03
            6032            6112     30.5983E-03     31.5888E-03
            6032            6113     32.9685E-03     34.0140E-03
            6033            6095     32.1958E-03     33.7272E-03
            6033            6096     34.7043E-03     36.2793E-03
            6033            6113     32.9685E-03     34.0140E-03
            6033            6114     35.3730E-03     36.4786E-03
            6034            6096     34.7043E-03     36.2793E-03
            6034            6097     37.3805E-03     38.9867E-03
            6034            6114     35.3730E-03     36.4786E-03
            6034            6115     37.7576E-03     38.9423E-03
            6035            6097     37.3805E-03     38.9867E-03
            6035            6098     40.2927E-03     41.9002E-03
            6035            6115     37.7576E-03     38.9423E-03
            6035            6116     40.2094E-03     41.4174E-03
            6036            6098     40.2927E-03     41.9002E-03
            6036            6099     43.8097E-03     45.2557E-03
            6036            6116     40.2094E-03     41.4174E-03
            6036            6117     42.7004E-03     43.9274E-03
            6037            6099     43.8097E-03     45.2557E-03
            6037            6100     47.9952E-03     49.2640E-03
            6037            6117     42.7004E-03     43.9274E-03
            6037            6118     45.4265E-03     46.5644E-03
            6038            1017     53.0196E-03     54.1501E-03
            6038            1018     48.9645E-03     49.7655E-03
            6038            6100     47.9952E-03     49.2640E-03
            6038            6118     45.4265E-03     46.5644E-03
            6039             866     10.7801E-03     9.88972E-03
            6039             867     12.0243E-03     11.0252E-03
            6039            6101     10.9691E-03     10.2539E-03
            6039            6119     12.1629E-03     11.4474E-03
            6040            6101     10.9691E-03     10.2539E-03
            6040            6102     11.5464E-03     11.2805E-03
            6040            6119     12.1629E-03     11.4474E-03
            6040            6120     12.6530E-03     12.4063E-03
            6041            6102     11.5464E-03     11.2805E-03
            6041            6103     12.5293E-03     12.7120E-03
            6041            6120     12.6530E-03     12.4063E-03
            6041            6121     13.5731E-03     13.6522E-03
            6042            6103     12.5293E-03     12.7120E-03
            6042            6104     13.8902E-03     14.3676E-03
            6042            6121     13.5731E-03     13.6522E-03
            6042            6122     14.8652E-03     15.1638E-03
            6043            6104     13.8902E-03     14.3676E-03
            6043            6105     15.5365E-03     16.2072E-03
            6043            6122     14.8652E-03     15.1638E-03
            6043            6123     16.4449E-03     16.8311E-03
            6044            6105     15.5365E-03     16.2072E-03
            6044            6106     17.3898E-03     18.1603E-03
            6044            6123     16.4449E-03     16.8311E-03
            6044            6124     18.2482E-03     18.6435E-03
            6045            6106     17.3898E-03     18.1603E-03
            6045            6107     19.3973E-03     20.2148E-03
            6045            6124     18.2482E-03     18.6435E-03
            6045            6125     20.1993E-03     20.5939E-03
            6046            6107     19.3973E-03     20.2148E-03
            6046            6108     21.5077E-03     22.3592E-03
            6046            6125     20.1993E-03     20.5939E-03
            6046            6126     22.2591E-03     22.6542E-03
            6047            6108     21.5077E-03     22.3592E-03
            6047            6109     23.6975E-03     24.5765E-03
            6047            6126     22.2591E-03     22.6542E-03
            6047            6127     24.4051E-03     24.8083E-03
            6048            6109     23.6975E-03     24.5765E-03
            6048            6110     25.9501E-03     26.8603E-03
            6048            6127     24.4051E-03     24.8083E-03
            6048            6128     26.6154E-03     27.0355E-03
            6049            6110     25.9501E-03     26.8603E-03
            6049            6111     28.2518E-03     29.1974E-03
            6049            6128     26.6154E-03     27.0355E-03
            6049            6129     28.8795E-03     29.3249E-03
            6050            6111     28.2518E-03     29.1974E-03
            6050            6112     30.5983E-03     31.5888E-03
            6050            6129     28.8795E-03     29.3249E-03
            6050            6130     31.1653E-03     31.6495E-03
            6051            6112     30.5983E-03     31.5888E-03
            6051            6113     32.9685E-03     34.0140E-03
            6051            6130     31.1653E-03     31.6495E-03
            6051            6131     33.4592E-03     33.9920E-03
            6052            6113     32.9685E-03     34.0140E-03
            6052            6114     35.3730E-03     36.4786E-03
            6052            6131     33.4592E-03     33.9920E-03
            6052            6132     35.6759E-03     36.2905E-03
            6053            6114     35.3730E-03     36.4786E-03
            6053            6115     37.7576E-03     38.9423E-03
            6053            6132     35.6759E-03     36.2905E-03
            6053            6133     37.7893E-03     38.4848E-03
            6054            6115     37.7576E-03     38.9423E-03
            6054            6116     40.2094E-03     41.4174E-03
            6054            6133     37.7893E-03     38.4848E-03
            6054            6134     39.6164E-03     40.4577E-03
            6055            6116     40.2094E-03     41.4174E-03
            6055            6117     42.7004E-03     43.9274E-03
            6055            6134     39.6164E-03     40.4577E-03
            6055            6135     41.1353E-03     42.0808E-03
            6056            6117     42.7004E-03     43.9274E-03
            6056            6118     45.4265E-03     46.5644E-03
            6056            6135     41.1353E-03     42.0808E-03
            6056            6136     42.5764E-03     43.4766E-03
            6057            1018     48.9645E-03     49.7655E-03
            6057            1019     44.4823E-03     45.2507E-03
            6057            6118     45.4265E-03     46.5644E-03
            6057            6136     42.5764E-03     43.4766E-03
            6058             867     12.0243E-03     11.0252E-03
            6058             868     13.1366E-03     12.5401E-03
            6058            6119     12.1629E-03     11.4474E-03
            6058            6137     13.2539E-03     12.7865E-03
            6059            6119     12.1629E-03     11.4474E-03
            6059            6120     12.6530E-03     12.4063E-03
            6059            6137     13.2539E-03     12.7865E-03
            6059            6138     13.7174E-03     13.5600E-03
            6060            6120     12.6530E-03     12.4063E-03
            6060            6121     13.5731E-03     13.6522E-03
            6060            6138     13.7174E-03     13.5600E-03
            6060            6139     14.5734E-03     14.7166E-03
            6061            6121     13.5731E-03     13.6522E-03
            6061            6122     14.8652E-03     15.1638E-03
            6061            6139     14.5734E-03     14.7166E-03
            6061            6140     15.7874E-03     16.0082E-03
            6062            6122     14.8652E-03     15.1638E-03
            6062            6123     16.4449E-03     16.8311E-03
            6062            6140     15.7874E-03     16.0082E-03
            6062            6141     17.3283E-03     17.4516E-03
            6063            6123     16.4449E-03     16.8311E-03
            6063            6124     18.2482E-03     18.6435E-03
            6063            6141     17.3283E-03     17.4516E-03
            6063            6142     19.0638E-03     19.1019E-03
            6064            6124     18.2482E-03     18.6435E-03
            6064            6125     20.1993E-03     20.5939E-03
            6064            6142     19.0638E-03     19.1019E-03
            6064            6143     20.9300E-03     20.9132E-03
            6065            6125     20.1993E-03     20.5939E-03
            6065            6126     22.2591E-03     22.6542E-03
            6065            6143     20.9300E-03     20.9132E-03
            6065            6144     22.9053E-03     22.8545E-03
            6066            6126     22.2591E-03     22.6542E-03
            6066            6127     24.4051E-03     24.8083E-03
            6066            6144     22.9053E-03     22.8545E-03
            6066            6145     24.9608E-03     24.8964E-03
            6067            6127     24.4051E-03     24.8083E-03
            6067            6128     26.6154E-03     27.0355E-03
            6067            6145     24.9608E-03     24.8964E-03
            6067            6146     27.0853E-03     27.0173E-03
            6068            6128     26.6154E-03     27.0355E-03
            6068            6129     28.8795E-03     29.3249E-03
            6068            6146     27.0853E-03     27.0173E-03
            6068            6147     29.2492E-03     29.1906E-03
            6069            6129     28.8795E-03     29.3249E-03
            6069            6130     31.1653E-03     31.6495E-03
            6069            6147     29.2492E-03     29.1906E-03
            6069            6148     31.4343E-03     31.3927E-03
            6070            6130     31.1653E-03     31.6495E-03
            6070            6131     33.4592E-03     33.9920E-03
            6070            6148     31.4343E-03     31.3927E-03
            6070            6149     33.5726E-03     33.5717E-03
            6071            6131     33.4592E-03     33.9920E-03
            6071            6132     35.6759E-03     36.2905E-03
            6071            6149     33.5726E-03     33.5717E-03
            6071            6150     35.6141E-03     35.6662E-03
            6072            6132     35.6759E-03     36.2905E-03
            6072            6133     37.7893E-03     38.4848E-03
            6072            6150     35.6141E-03     35.6662E-03
            6072            6151     37.3844E-03     37.5514E-03
            6073            6133     37.7893E-03     38.4848E-03
            6073            6134     39.6164E-03     40.4577E-03
            6073            6151     37.3844E-03     37.5514E-03
            6073            6152     38.7481E-03     39.0600E-03
            6074            6134     39.6164E-03     40.4577E-03
            6074            6135     41.1353E-03     42.0808E-03
            6074            6152     38.7481E-03     39.0600E-03
            6074            6153     39.4267E-03     39.9654E-03
            6075            6135     41.1353E-03     42.0808E-03
            6075            6136     42.5764E-03     43.4766E-03
            6075            6153     39.4267E-03     39.9654E-03
            6075            6154     39.4757E-03     40.2030E-03
            6076            1019     44.4823E-03     45.2507E-03
            6076            1020     39.9490E-03     40.4785E-03
            6076            6136     42.5764E-03     43.4766E-03
            6076            6154     39.4757E-03     40.2030E-03
            6077             868     13.1366E-03     12.5401E-03
            6077             869     14.2514E-03     13.5977E-03
            6077            6137     13.2539E-03     12.7865E-03
            6077            6155     14.3937E-03     14.0434E-03
            6078            6137     13.2539E-03     12.7865E-03
            6078            6138     13.7174E-03     13.5600E-03
            6078            6155     14.3937E-03     14.0434E-03
            6078            6156     14.7477E-03     14.9917E-03
            6079            6138     13.7174E-03     13.5600E-03
            6079            6139     14.5734E-03     14.7166E-03
            6079            6156     14.7477E-03     14.9917E-03
            6079            6157     15.4899E-03     15.8888E-03
            6080            6139     14.5734E-03     14.7166E-03
            6080            6140     15.7874E-03     16.0082E-03
            6080            6157     15.4899E-03     15.8888E-03
            6080            6158     16.7440E-03     16.8329E-03
            6081            6140     15.7874E-03     16.0082E-03
            6081            6141     17.3283E-03     17.4516E-03
            6081            6158     16.7440E-03     16.8329E-03
            6081            6159     18.2396E-03     18.0726E-03
            6082            6141     17.3283E-03     17.4516E-03
            6082            6142     19.0638E-03     19.1019E-03
            6082            6159     18.2396E-03     18.0726E-03
            6082            6160     19.8670E-03     19.5468E-03
            6083            6142     19.0638E-03     19.1019E-03
            6083            6143     20.9300E-03     20.9132E-03
            6083            6160     19.8670E-03     19.5468E-03
            6083            6161     21.6194E-03     21.1961E-03
            6084            6143     20.9300E-03     20.9132E-03
            6084            6144     22.9053E-03     22.8545E-03
            6084            6161     21.6194E-03     21.1961E-03
            6084            6162     23.4608E-03     22.9801E-03
            6085            6144     22.9053E-03     22.8545E-03
            6085            6145     24.9608E-03     24.8964E-03
            6085            6162     23.4608E-03     22.9801E-03
            6085            6163     25.3822E-03     24.8612E-03
            6086            6145     24.9608E-03     24.8964E-03
            6086            6146     27.0853E-03     27.0173E-03
            6086            6163     25.3822E-03     24.8612E-03
            6086            6164     27.3568E-03     26.8114E-03
            6087            6146     27.0853E-03     27.0173E-03
            6087            6147     29.2492E-03     29.1906E-03
            6087            6164     27.3568E-03     26.8114E-03
            6087            6165     29.3670E-03     28.8020E-03
            6088            6147     29.2492E-03     29.1906E-03
            6088            6148     31.4343E-03     31.3927E-03
            6088            6165     29.3670E-03     28.8020E-03
            6088            6166     31.3671E-03     30.7953E-03
            6089            6148     31.4343E-03     31.3927E-03
            6089            6149     33.5726E-03     33.5717E-03
            6089            6166     31.3671E-03     30.7953E-03
            6089            6167     33.3143E-03     32.7406E-03
            6090            6149     33.5726E-03     33.5717E-03
            6090            6150     35.6141E-03     35.6662E-03
            6090            6167     33.3143E-03     32.7406E-03
            6090            6168     35.0988E-03     34.5537E-03
            6091            6150     35.6141E-03     35.6662E-03
            6091            6151     37.3844E-03     37.5514E-03
            6091            6168     35.0988E-03     34.5537E-03
            6091            6169     36.5975E-03     36.1078E-03
            6092            6151     37.3844E-03     37.5514E-03
            6092            6152     38.7481E-03     39.0600E-03
            6092            6169     36.5975E-03     36.1078E-03
            6092            6170     37.5569E-03     37.1990E-03
            6093            6152     38.7481E-03     39.0600E-03
            6093            6153     39.4267E-03     39.9654E-03
            6093            6170     37.5569E-03     37.1990E-03
            6093            6171     37.7145E-03     37.5836E-03
            6094            6153     39.4267E-03     39.9654E-03
            6094            6154     39.4757E-03     40.2030E-03
            6094            6171     37.7145E-03     37.5836E-03
            6094            6172     36.6403E-03     36.8732E-03
            6095            1020     39.9490E-03     40.4785E-03
            6095            1021     35.1441E-03     35.5738E-03
            6095            6154     39.4757E-03     40.2030E-03
            6095            6172     36.6403E-03     36.8732E-03
            6096             869     14.2514E-03     13.5977E-03
            6096             870     15.6272E-03     15.6693E-03
            6096            6155     14.3937E-03     14.0434E-03
            6096            6173     15.3995E-03     16.1038E-03
            6097            6155     14.3937E-03     14.0434E-03
            6097            6156     14.7477E-03     14.9917E-03
            6097            6173     15.3995E-03     16.1038E-03
            6097            6174     15.5382E-03     16.6103E-03
            6098            6156     14.7477E-03     14.9917E-03
            6098            6157     15.4899E-03     15.8888E-03
            6098            6174     15.5382E-03     16.6103E-03
            6098            6175     16.5480E-03     16.9170E-03
            6099            6157     15.4899E-03     15.8888E-03
            6099            6158     16.7440E-03     16.8329E-03
            6099            6175     16.5480E-03     16.9170E-03
            6099            6176     17.8401E-03     17.6358E-03
            6100            6158     16.7440E-03     16.8329E-03
            6100            6159     18.2396E-03     18.0726E-03
            6100            6176     17.8401E-03     17.6358E-03
            6100            6177     19.2150E-03     18.7176E-03
            6101            6159     18.2396E-03     18.0726E-03
            6101            6160     19.8670E-03     19.5468E-03
            6101            6177     19.2150E-03     18.7176E-03
            6101            6178     20.7126E-03     20.0220E-03
            6102            6160     19.8670E-03     19.5468E-03
            6102            6161     21.6194E-03     21.1961E-03
            6102            6178     20.7126E-03     20.0220E-03
            6102            6179     22.3035E-03     21.4992E-03
            6103            6161     21.6194E-03     21.1961E-03
            6103            6162     23.4608E-03     22.9801E-03
            6103            6179     22.3035E-03     21.4992E-03
            6103            6180     23.9786E-03     23.0918E-03
            6104            6162     23.4608E-03     22.9801E-03
            6104            6163     25.3822E-03     24.8612E-03
            6104            6180     23.9786E-03     23.0918E-03
            6104            6181     25.7139E-03     24.7657E-03
            6105            6163     25.3822E-03     24.8612E-03
            6105            6164     27.3568E-03     26.8114E-03
            6105            6181     25.7139E-03     24.7657E-03
            6105            6182     27.4885E-03     26.4852E-03
            6106            6164     27.3568E-03     26.8114E-03
            6106            6165     29.3670E-03     28.8020E-03
            6106            6182     27.4885E-03     26.4852E-03
            6106            6183     29.2698E-03     28.2181E-03
            6107            6165     29.3670E-03     28.8020E-03
            6107            6166     31.3671E-03     30.7953E-03
            6107            6183     29.2698E-03     28.2181E-03
            6107            6184     31.0216E-03     29.9193E-03
            6108            6166     31.3671E-03     30.7953E-03
            6108            6167     33.3143E-03     32.7406E-03
            6108            6184     31.0216E-03     29.9193E-03
            6108            6185     32.6819E-03     31.5356E-03
            6109            6167     33.3143E-03     32.7406E-03
            6109            6168     35.0988E-03     34.5537E-03
            6109            6185     32.6819E-03     31.5356E-03
            6109            6186     34.1650E-03     32.9768E-03
            6110            6168     35.0988E-03     34.5537E-03
            6110            6169     36.5975E-03     36.1078E-03
            6110            6186     34.1650E-03     32.9768E-03
            6110            6187     35.3398E-03     34.1264E-03
            6111            6169     36.5975E-03     36.1078E-03
            6111            6170     37.5569E-03     37.1990E-03
            6111            6187     35.3398E-03     34.1264E-03
            6111            6188     35.9870E-03     34.7948E-03
            6112            6170     37.5569E-03     37.1990E-03
            6112            6171     37.7145E-03     37.5836E-03
            6112            6188     35.9870E-03     34.7948E-03
            6112            6189     35.8096E-03     34.7035E-03
            6113            6171     37.7145E-03     37.5836E-03
            6113            6172     36.6403E-03     36.8732E-03
            6113            6189     35.8096E-03     34.7035E-03
            6113            6190     34.3516E-03     33.5281E-03
            6114            1021     35.1441E-03     35.5738E-03
            6114            1022     30.9466E-03     30.6839E-03
            6114            6172     36.6403E-03     36.8732E-03
            6114            6190     34.3516E-03     33.5281E-03
            6115             870     15.6272E-03     15.6693E-03
            6115             871     15.5910E-03     18.4648E-03
            6115            6173     15.3995E-03     16.1038E-03
            6115            6191     15.9280E-03     18.0971E-03
            6116            6173     15.3995E-03     16.1038E-03
            6116            6174     15.5382E-03     16.6103E-03
            6116            6191     15.9280E-03     18.0971E-03
            6116            6192     16.8264E-03     17.6024E-03
            6117            6174     15.5382E-03     16.6103E-03
            6117            6175     16.5480E-03     16.9170E-03
            6117            6192     16.8264E-03     17.6024E-03
            6117            6193     17.9567E-03     17.7548E-03
            6118            6175     16.5480E-03     16.9170E-03
            6118            6176     17.8401E-03     17.6358E-03
            6118            6193     17.9567E-03     17.7548E-03
            6118            6194     19.0884E-03     18.4659E-03
            6119            6176     17.8401E-03     17.6358E-03
            6119            6177     19.2150E-03     18.7176E-03
            6119            6194     19.0884E-03     18.4659E-03
            6119            6195     20.3000E-03     19.4397E-03
            6120            6177     19.2150E-03     18.7176E-03
            6120            6178     20.7126E-03     20.0220E-03
            6120            6195     20.3000E-03     19.4397E-03
            6120            6196     21.6287E-03     20.6041E-03
            6121            6178     20.7126E-03     20.0220E-03
            6121            6179     22.3035E-03     21.4992E-03
            6121            6196     21.6287E-03     20.6041E-03
            6121            6197     23.0411E-03     21.9014E-03
            6122            6179     22.3035E-03     21.4992E-03
            6122            6180     23.9786E-03     23.0918E-03
            6122            6197     23.0411E-03     21.9014E-03
            6122            6198     24.5264E-03     23.2851E-03
            6123            6180     23.9786E-03     23.0918E-03
            6123            6181     25.7139E-03     24.7657E-03
            6123            6198     24.5264E-03     23.2851E-03
            6123            6199     26.0487E-03     24.7188E-03
            6124            6181     25.7139E-03     24.7657E-03
            6124            6182     27.4885E-03     26.4852E-03
            6124            6199     26.0487E-03     24.7188E-03
            6124            6200     27.5805E-03     26.1652E-03
            6125            6182     27.4885E-03     26.4852E-03
            6125            6183     29.2698E-03     28.2181E-03
            6125            6200     27.5805E-03     26.1652E-03
            6125            6201     29.0828E-03     27.5797E-03
            6126            6183     29.2698E-03     28.2181E-03
            6126            6184     31.0216E-03     29.9193E-03
            6126            6201     29.0828E-03     27.5797E-03
            6126            6202     30.5116E-03     28.9191E-03
            6127            6184     31.0216E-03     29.9193E-03
            6127            6185     32.6819E-03     31.5356E-03
            6127            6202     30.5116E-03     28.9191E-03
            6127            6203     31.8048E-03     30.1083E-03
            6128            6185     32.6819E-03     31.5356E-03
            6128            6186     34.1650E-03     32.9768E-03
            6128            6203     31.8048E-03     30.1083E-03
            6128            6204     32.8910E-03     31.0808E-03
            6129            6186     34.1650E-03     32.9768E-03
            6129            6187     35.3398E-03     34.1264E-03
            6129            6204     32.8910E-03     31.0808E-03
            6129            6205     33.6405E-03     31.6970E-03
            6130            6187     35.3398E-03     34.1264E-03
            6130            6188     35.9870E-03     34.7948E-03
            6130            6205     33.6405E-03     31.6970E-03
            6130            6206     33.9392E-03     31.8362E-03
            6131            6188     35.9870E-03     34.7948E-03
            6131            6189     35.8096E-03     34.7035E-03
            6131            6206     33.9392E-03     31.8362E-03
            6131            6207     33.4691E-03     31.2207E-03
            6132            6189     35.8096E-03     34.7035E-03
            6132            6190     34.3516E-03     33.5281E-03
            6132            6207     33.4691E-03     31.2207E-03
            6132            6208     32.0437E-03     29.6450E-03
            6133            1022     30.9466E-03     30.6839E-03
            6133            1023     28.5524E-03     26.3253E-03
            6133            6190     34.3516E-03     33.5281E-03
            6133            6208     32.0437E-03     29.6450E-03
            6134             871     15.5910E-03     18.4648E-03
            6134             872     11.7062E-03     14.6593E-03
            6134            6191     15.9280E-03     18.0971E-03
            6134            6209     12.4748E-03     14.2340E-03
            6135            6191     15.9280E-03     18.0971E-03
            6135            6192     16.8264E-03     17.6024E-03
            6135            6209     12.4748E-03     14.2340E-03
            6135            6210     13.5319E-03     13.7901E-03
            6136            6192     16.8264E-03     17.6024E-03
            6136            6193     17.9567E-03     17.7548E-03
            6136            6210     13.5319E-03     13.7901E-03
            6136            6211     13.9948E-03     14.0499E-03
            6137            6193     17.9567E-03     17.7548E-03
            6137            6194     19.0884E-03     18.4659E-03
            6137            6211     13.9948E-03     14.0499E-03
            6137            6212     14.4395E-03     14.5622E-03
            6138            6194     19.0884E-03     18.4659E-03
            6138            6195     20.3000E-03     19.4397E-03
            6138            6212     14.4395E-03     14.5622E-03
            6138            6213     14.9939E-03     15.1140E-03
            6139            6195     20.3000E-03     19.4397E-03
            6139            6196     21.6287E-03     20.6041E-03
            6139            6213     14.9939E-03     15.1140E-03
            6139            6214     15.6015E-03     15.7856E-03
            6140            6196     21.6287E-03     20.6041E-03
            6140            6197     23.0411E-03     21.9014E-03
            6140            6214     15.6015E-03     15.7856E-03
            6140            6215     16.2693E-03     16.5102E-03
            6141            6197     23.0411E-03     21.9014E-03
            6141            6198     24.5264E-03     23.2851E-03
            6141            6215     16.2693E-03     16.5102E-03
            6141            6216     16.9785E-03     17.2805E-03
            6142            6198     24.5264E-03     23.2851E-03
            6142            6199     26.0487E-03     24.7188E-03
            6142            6216     16.9785E-03     17.2805E-03
            6142            6217     17.7153E-03     18.0720E-03
            6143            6199     26.0487E-03     24.7188E-03
            6143            6200     27.5805E-03     26.1652E-03
            6143            6217     17.7153E-03     18.0720E-03
            6143            6218     18.4542E-03     18.8661E-03
            6144            6200     27.5805E-03     26.1652E-03
            6144            6201     29.0828E-03     27.5797E-03
            6144            6218     18.4542E-03     18.8661E-03
            6144            6219     19.1882E-03     19.6418E-03
            6145            6201     29.0828E-03     27.5797E-03
            6145            6202     30.5116E-03     28.9191E-03
            6145            6219     19.1882E-03     19.6418E-03
            6145            6220     19.8701E-03     20.3638E-03
            6146            6202     30.5116E-03     28.9191E-03
            6146            6203     31.8048E-03     30.1083E-03
            6146            6220     19.8701E-03     20.3638E-03
            6146            6221     20.5087E-03     21.0160E-03
            6147            6203     31.8048E-03     30.1083E-03
            6147            6204     32.8910E-03     31.0808E-03
            6147            6221     20.5087E-03     21.0160E-03
            6147            6222     21.0079E-03     21.5263E-03
            6148            6204     32.8910E-03     31.0808E-03
            6148            6205     33.6405E-03     31.6970E-03
            6148            6222     21.0079E-03     21.5263E-03
            6148            6223     21.4148E-03     21.8884E-03
            6149            6205     33.6405E-03     31.6970E-03
            6149            6206     33.9392E-03     31.8362E-03
            6149            6223     21.4148E-03     21.8884E-03
            6149            6224     21.5126E-03     21.9452E-03
            6150            6206     33.9392E-03     31.8362E-03
            6150            6207     33.4691E-03     31.2207E-03
            6150            6224     21.5126E-03     21.9452E-03
            6150            6225     21.4184E-03     21.6786E-03
            6151            6207     33.4691E-03     31.2207E-03
            6151            6208     32.0437E-03     29.6450E-03
            6151            6225     21.4184E-03     21.6786E-03
            6151            6226     20.5105E-03     20.7726E-03
            6152            1023     28.5524E-03     26.3253E-03
            6152            1024     19.1263E-03     19.5726E-03
            6152            6208     32.0437E-03     29.6450E-03
            6152            6226     20.5105E-03     20.7726E-03
            6153             872     11.7062E-03     14.6593E-03
            6153             873     9.61523E-03     9.41020E-03
            6153            6209     12.4748E-03     14.2340E-03
            6153            6227     9.52684E-03     9.54672E-03
            6154            6209     12.4748E-03     14.2340E-03
            6154            6210     13.5319E-03     13.7901E-03
            6154            6227     9.52684E-03     9.54672E-03
            6154            6228     9.39609E-03     9.74557E-03
            6155            6210     13.5319E-03     13.7901E-03
            6155            6211     13.9948E-03     14.0499E-03
            6155            6228     9.39609E-03     9.74557E-03
            6155            6229     9.32953E-03     9.86253E-03
            6156            6211     13.9948E-03     14.0499E-03
            6156            6212     14.4395E-03     14.5622E-03
            6156            6229     9.32953E-03     9.86253E-03
            6156            6230     9.30000E-03     10.0016E-03
            6157            6212     14.4395E-03     14.5622E-03
            6157            6213     14.9939E-03     15.1140E-03
            6157            6230     9.30000E-03     10.0016E-03
            6157            6231     9.30335E-03     10.1768E-03
            6158            6213     14.9939E-03     15.1140E-03
            6158            6214     15.6015E-03     15.7856E-03
            6158            6231     9.30335E-03     10.1768E-03
            6158            6232     9.33365E-03     10.3691E-03
            6159            6214     15.6015E-03     15.7856E-03
            6159            6215     16.2693E-03     16.5102E-03
            6159            6232     9.33365E-03     10.3691E-03
            6159            6233     9.38723E-03     10.5824E-03
            6160            6215     16.2693E-03     16.5102E-03
            6160            6216     16.9785E-03     17.2805E-03
            6160            6233     9.38723E-03     10.5824E-03
            6160            6234     9.46148E-03     10.8103E-03
            6161            6216     16.9785E-03     17.2805E-03
            6161            6217     17.7153E-03     18.0720E-03
            6161            6234     9.46148E-03     10.8103E-03
            6161            6235     9.55947E-03     11.0553E-03
            6162            6217     17.7153E-03     18.0720E-03
            6162            6218     18.4542E-03     18.8661E-03
            6162            6235     9.55947E-03     11.0553E-03
            6162            6236     9.67601E-03     11.3114E-03
            6163            6218     18.4542E-03     18.8661E-03
            6163            6219     19.1882E-03     19.6418E-03
            6163            6236     9.67601E-03     11.3114E-03
            6163            6237     9.81932E-03     11.5869E-03
            6164            6219     19.1882E-03     19.6418E-03
            6164            6220     19.8701E-03     20.3638E-03
            6164            6237     9.81932E-03     11.5869E-03
            6164            6238     9.97543E-03     11.8677E-03
            6165            6220     19.8701E-03     20.3638E-03
            6165            6221     20.5087E-03     21.0160E-03
            6165            6238     9.97543E-03     11.8677E-03
            6165            6239     10.1708E-03     12.1769E-03
            6166            6221     20.5087E-03     21.0160E-03
            6166            6222     21.0079E-03     21.5263E-03
            6166            6239     10.1708E-03     12.1769E-03
            6166            6240     10.3644E-03     12.4804E-03
            6167            6222     21.0079E-03     21.5263E-03
            6167            6223     21.4148E-03     21.8884E-03
            6167            6240     10.3644E-03     12.4804E-03
            6167            6241     10.6397E-03     12.8377E-03
            6168            6223     21.4148E-03     21.8884E-03
            6168            6224     21.5126E-03     21.9452E-03
            6168            6241     10.6397E-03     12.8377E-03
            6168            6242     10.8657E-03     13.1655E-03
            6169            6224     21.5126E-03     21.9452E-03
            6169            6225     21.4184E-03     21.6786E-03
            6169            6242     10.8657E-03     13.1655E-03
            6169            6243     11.2924E-03     13.5773E-03
            6170            6225     21.4184E-03     21.6786E-03
            6170            6226     20.5105E-03     20.7726E-03
            6170            6243     11.2924E-03     13.5773E-03
            6170            6244     11.4321E-03     13.8605E-03
            6171            1024     19.1263E-03     19.5726E-03
            6171            1025     11.6234E-03     14.5951E-03
            6171            6226     20.5105E-03     20.7726E-03
            6171            6244     11.4321E-03     13.8605E-03
            6172             873     9.61523E-03     9.41020E-03
            6172             874     10.9543E-03     8.91802E-03
            6172            6227     9.52684E-03     9.54672E-03
            6172            6245     10.4189E-03     9.36339E-03
            6173            6227     9.52684E-03     9.54672E-03
            6173            6228     9.39609E-03     9.74557E-03
            6173            6245     10.4189E-03     9.36339E-03
            6173            6246     9.73197E-03     9.82661E-03
            6174            6228     9.39609E-03     9.74557E-03
            6174            6229     9.32953E-03     9.86253E-03
            6174            6246     9.73197E-03     9.82661E-03
            6174            6247     9.67266E-03     9.76713E-03
            6175            6229     9.32953E-03     9.86253E-03
            6175            6230     9.30000E-03     10.0016E-03
            6175            6247     9.67266E-03     9.76713E-03
            6175            6248     9.77767E-03     9.75527E-03
            6176            6230     9.30000E-03     10.0016E-03
            6176            6231     9.30335E-03     10.1768E-03
            6176            6248     9.77767E-03     9.75527E-03
            6176            6249     9.84144E-03     9.87546E-03
            6177            6231     9.30335E-03     10.1768E-03
            6177            6232     9.33365E-03     10.3691E-03
            6177            6249     9.84144E-03     9.87546E-03
            6177            6250     9.95592E-03     9.99167E-03
            6178            6232     9.33365E-03     10.3691E-03
            6178            6233     9.38723E-03     10.5824E-03
            6178            6250     9.95592E-03     9.99167E-03
            6178            6251     10.0884E-03     10.1281E-03
            6179            6233     9.38723E-03     10.5824E-03
            6179            6234     9.46148E-03     10.8103E-03
            6179            6251     10.0884E-03     10.1281E-03
            6179            6252     10.2389E-03     10.2869E-03
            6180            6234     9.46148E-03     10.8103E-03
            6180            6235     9.55947E-03     11.0553E-03
            6180            6252     10.2389E-03     10.2869E-03
            6180            6253     10.4061E-03     10.4601E-03
            6181            6235     9.55947E-03     11.0553E-03
            6181            6236     9.67601E-03     11.3114E-03
            6181            6253     10.4061E-03     10.4601E-03
            6181            6254     10.5938E-03     10.6530E-03
            6182            6236     9.67601E-03     11.3114E-03
            6182            6237     9.81932E-03     11.5869E-03
            6182            6254     10.5938E-03     10.6530E-03
            6182            6255     10.7921E-03     10.8577E-03
            6183            6237     9.81932E-03     11.5869E-03
            6183            6238     9.97543E-03     11.8677E-03
            6183            6255     10.7921E-03     10.8577E-03
            6183            6256     11.0151E-03     11.0837E-03
            6184            6238     9.97543E-03     11.8677E-03
            6184            6239     10.1708E-03     12.1769E-03
            6184            6256     11.0151E-03     11.0837E-03
            6184            6257     11.2382E-03     11.3131E-03
            6185            6239     10.1708E-03     12.1769E-03
            6185            6240     10.3644E-03     12.4804E-03
            6185            6257     11.2382E-03     11.3131E-03
            6185            6258     11.4994E-03     11.5761E-03
            6186            6240     10.3644E-03     12.4804E-03
            6186            6241     10.6397E-03     12.8377E-03
            6186            6258     11.4994E-03     11.5761E-03
            6186            6259     11.7507E-03     11.8291E-03
            6187            6241     10.6397E-03     12.8377E-03
            6187            6242     10.8657E-03     13.1655E-03
            6187            6259     11.7507E-03     11.8291E-03
            6187            6260     12.1253E-03     12.1893E-03
            6188            6242     10.8657E-03     13.1655E-03
            6188            6243     11.2924E-03     13.5773E-03
            6188            6260     12.1253E-03     12.1893E-03
            6188            6261     12.4907E-03     12.6272E-03
            6189            6243     11.2924E-03     13.5773E-03
            6189            6244     11.4321E-03     13.8605E-03
            6189            6261     12.4907E-03     12.6272E-03
            6189            6262     13.3938E-03     13.2194E-03
            6190            1025     11.6234E-03     14.5951E-03
            6190            1026     13.0273E-03     13.2400E-03
            6190            6244     11.4321E-03     13.8605E-03
            6190            6262     13.3938E-03     13.2194E-03
            6191             874     10.9543E-03     8.91802E-03
            6191             875     10.1497E-03     10.1128E-03
            6191            6245     10.4189E-03     9.36339E-03
            6191            6263     10.1706E-03     10.0623E-03
            6192            6245     10.4189E-03     9.36339E-03
            6192            6246     9.73197E-03     9.82661E-03
            6192            6263     10.1706E-03     10.0623E-03
            6192            6264     10.2440E-03     9.96507E-03
            6193            6246     9.73197E-03     9.82661E-03
            6193            6247     9.67266E-03     9.76713E-03
            6193            6264     10.2440E-03     9.96507E-03
            6193            6265     10.3607E-03     9.90137E-03
            6194            6247     9.67266E-03     9.76713E-03
            6194            6248     9.77767E-03     9.75527E-03
            6194            6265     10.3607E-03     9.90137E-03
            6194            6266     10.5033E-03     9.88341E-03
            6195            6248     9.77767E-03     9.75527E-03
            6195            6249     9.84144E-03     9.87546E-03
            6195            6266     10.5033E-03     9.88341E-03
            6195            6267     10.6654E-03     9.89489E-03
            6196            6249     9.84144E-03     9.87546E-03
            6196            6250     9.95592E-03     9.99167E-03
            6196            6267     10.6654E-03     9.89489E-03
            6196            6268     10.8437E-03     9.93218E-03
            6197            6250     9.95592E-03     9.99167E-03
            6197            6251     10.0884E-03     10.1281E-03
            6197            6268     10.8437E-03     9.93218E-03
            6197            6269     11.0409E-03     9.98955E-03
            6198            6251     10.0884E-03     10.1281E-03
            6198            6252     10.2389E-03     10.2869E-03
            6198            6269     11.0409E-03     9.98955E-03
            6198            6270     11.2519E-03     10.0656E-03
            6199            6252     10.2389E-03     10.2869E-03
            6199            6253     10.4061E-03     10.4601E-03
            6199            6270     11.2519E-03     10.0656E-03
            6199            6271     11.4780E-03     10.1612E-03
            6200            6253     10.4061E-03     10.4601E-03
            6200            6254     10.5938E-03     10.6530E-03
            6200            6271     11.4780E-03     10.1612E-03
            6200            6272     11.7150E-03     10.2739E-03
            6201            6254     10.5938E-03     10.6530E-03
            6201            6255     10.7921E-03     10.8577E-03
            6201            6272     11.7150E-03     10.2739E-03
            6201            6273     11.9655E-03     10.4041E-03
            6202            6255     10.7921E-03     10.8577E-03
            6202            6256     11.0151E-03     11.0837E-03
            6202            6273     11.9655E-03     10.4041E-03
            6202            6274     12.2219E-03     10.5469E-03
            6203            6256     11.0151E-03     11.0837E-03
            6203            6257     11.2382E-03     11.3131E-03
            6203            6274     12.2219E-03     10.5469E-03
            6203            6275     12.4901E-03     10.7053E-03
            6204            6257     11.2382E-03     11.3131E-03
            6204            6258     11.4994E-03     11.5761E-03
            6204            6275     12.4901E-03     10.7053E-03
            6204            6276     12.7576E-03     10.8682E-03
            6205            6258     11.4994E-03     11.5761E-03
            6205            6259     11.7507E-03     11.8291E-03
            6205            6276     12.7576E-03     10.8682E-03
            6205            6277     13.0443E-03     11.0543E-03
            6206            6259     11.7507E-03     11.8291E-03
            6206            6260     12.1253E-03     12.1893E-03
            6206            6277     13.0443E-03     11.0543E-03
            6206            6278     13.3526E-03     11.2448E-03
            6207            6260     12.1253E-03     12.1893E-03
            6207            6261     12.4907E-03     12.6272E-03
            6207            6278     13.3526E-03     11.2448E-03
            6207            6279     13.6893E-03     11.5019E-03
            6208            6261     12.4907E-03     12.6272E-03
            6208            6262     13.3938E-03     13.2194E-03
            6208            6279     13.6893E-03     11.5019E-03
            6208            6280     13.9483E-03     11.4973E-03
            6209            1026     13.0273E-03     13.2400E-03
            6209            1027     12.3667E-03     9.92267E-03
            6209            6262     13.3938E-03     13.2194E-03
            6209            6280     13.9483E-03     11.4973E-03
            6210              37     4.85974E-03     5.81515E-03
            6210             875     10.1497E-03     10.1128E-03
            6210             894     5.15113E-03     5.60058E-03
            6210            6263     10.1706E-03     10.0623E-03
            6211             894     5.15113E-03     5.60058E-03
            6211             895     5.55472E-03     5.33568E-03
            6211            6263     10.1706E-03     10.0623E-03
            6211            6264     10.2440E-03     9.96507E-03
            6212             895     5.55472E-03     5.33568E-03
            6212             896     5.67995E-03     5.31765E-03
            6212            6264     10.2440E-03     9.96507E-03
            6212            6265     10.3607E-03     9.90137E-03
            6213             896     5.67995E-03     5.31765E-03
            6213             897     5.75083E-03     5.33053E-03
            6213            6265     10.3607E-03     9.90137E-03
            6213            6266     10.5033E-03     9.88341E-03
            6214             897     5.75083E-03     5.33053E-03
            6214             898     5.85977E-03     5.30996E-03
            6214            6266     10.5033E-03     9.88341E-03
            6214            6267     10.6654E-03     9.89489E-03
            6215             898     5.85977E-03     5.30996E-03
            6215             899     5.96558E-03     5.31400E-03
            6215            6267     10.6654E-03     9.89489E-03
            6215            6268     10.8437E-03     9.93218E-03
            6216             899     5.96558E-03     5.31400E-03
            6216             900     6.08115E-03     5.32935E-03
            6216            6268     10.8437E-03     9.93218E-03
            6216            6269     11.0409E-03     9.98955E-03
            6217             900     6.08115E-03     5.32935E-03
            6217             901     6.20347E-03     5.35176E-03
            6217            6269     11.0409E-03     9.98955E-03
            6217            6270     11.2519E-03     10.0656E-03
            6218             901     6.20347E-03     5.35176E-03
            6218             902     6.33479E-03     5.38764E-03
            6218            6270     11.2519E-03     10.0656E-03
            6218            6271     11.4780E-03     10.1612E-03
            6219             902     6.33479E-03     5.38764E-03
            6219             903     6.46828E-03     5.42830E-03
            6219            6271     11.4780E-03     10.1612E-03
            6219            6272     11.7150E-03     10.2739E-03
            6220             903     6.46828E-03     5.42830E-03
            6220             904     6.61352E-03     5.48496E-03
            6220            6272     11.7150E-03     10.2739E-03
            6220            6273     11.9655E-03     10.4041E-03
            6221             904     6.61352E-03     5.48496E-03
            6221             905     6.75127E-03     5.53678E-03
            6221            6273     11.9655E-03     10.4041E-03
            6221            6274     12.2219E-03     10.5469E-03
            6222             905     6.75127E-03     5.53678E-03
            6222             906     6.91014E-03     5.61432E-03
            6222            6274     12.2219E-03     10.5469E-03
            6222            6275     12.4901E-03     10.7053E-03
            6223             906     6.91014E-03     5.61432E-03
            6223             907     7.03820E-03     5.66143E-03
            6223            6275     12.4901E-03     10.7053E-03
            6223            6276     12.7576E-03     10.8682E-03
            6224             907     7.03820E-03     5.66143E-03
            6224             908     7.21910E-03     5.76748E-03
            6224            6276     12.7576E-03     10.8682E-03
            6224            6277     13.0443E-03     11.0543E-03
            6225             908     7.21910E-03     5.76748E-03
            6225             909     7.30409E-03     5.77683E-03
            6225            6277     13.0443E-03     11.0543E-03
            6225            6278     13.3526E-03     11.2448E-03
            6226             909     7.30409E-03     5.77683E-03
            6226             910     7.53707E-03     5.85156E-03
            6226            6278     13.3526E-03     11.2448E-03
            6226            6279     13.6893E-03     11.5019E-03
            6227             910     7.53707E-03     5.85156E-03
            6227             911     7.20516E-03     5.52634E-03
            6227            6279     13.6893E-03     11.5019E-03
            6227            6280     13.9483E-03     11.4973E-03
            6228              38     6.20296E-03     4.36397E-03
            6228             911     7.20516E-03     5.52634E-03
            6228            1027     12.3667E-03     9.92267E-03
            6228            6280     13.9483E-03     11.4973E-03
            6509              13     4.95143E-03     8.73621E-03
            6509             201     1.49944E-03     1.52629E-03
            6509             823     5.22990E-03     5.83712E-03
            6509            6519     1.15301E-03     1.22741E-03
            6510              36     6.20296E-03     4.36397E-03
            6510             823     5.22990E-03     5.83712E-03
            6510             993     872.842E-06     958.717E-06
            6510            6519     1.15301E-03     1.22741E-03
            6511             201     1.49944E-03     1.52629E-03
            6511             202     1.17882E-03     1.13595E-03
            6511            6519     1.15301E-03     1.22741E-03
            6511            6520     986.161E-06     993.347E-06
            6512             992     867.506E-06     905.706E-06
            6512             993     872.842E-06     958.717E-06
            6512            6519     1.15301E-03     1.22741E-03
            6512            6520     986.161E-06     993.347E-06
            6513             202     1.17882E-03     1.13595E-03
            6513             203     804.386E-06     858.428E-06
            6513            6520     986.161E-06     993.347E-06
            6513            6521     733.726E-06     762.202E-06
            6514             991     750.930E-06     786.064E-06
            6514             992     867.506E-06     905.706E-06
            6514            6520     986.161E-06     993.347E-06
            6514            6521     733.726E-06     762.202E-06
            6515             203     804.386E-06     858.428E-06
            6515             204     565.285E-06     538.913E-06
            6515            6521     733.726E-06     762.202E-06
            6515            6522     515.911E-06     522.168E-06
            6516             990     621.540E-06     656.864E-06
            6516             991     750.930E-06     786.064E-06
            6516            6521     733.726E-06     762.202E-06
            6516            6522     515.911E-06     522.168E-06
            6517             204     565.285E-06     538.913E-06
            6517             205     362.567E-06     348.872E-06
            6517            6522     515.911E-06     522.168E-06
            6517            6523     351.468E-06     343.879E-06
            6518             989     559.104E-06     552.825E-06
            6518             990     621.540E-06     656.864E-06
            6518            6522     515.911E-06     522.168E-06
            6518            6523     351.468E-06     343.879E-06
            6519             205     362.567E-06     348.872E-06
            6519             206     344.888E-06     439.307E-06
            6519            6523     351.468E-06     343.879E-06
            6519            6524     327.926E-06     340.291E-06
            6520             988     513.935E-06     444.354E-06
            6520             989     559.104E-06     552.825E-06
            6520            6523     351.468E-06     343.879E-06
            6520            6524     327.926E-06     340.291E-06
            6521              14     387.561E-06     595.394E-06
            6521             206     344.888E-06     439.307E-06
            6521            1028     356.110E-06     403.533E-06
            6521            6524     327.926E-06     340.291E-06
            6522              42     480.370E-06     381.279E-06
            6522             988     513.935E-06     444.354E-06
            6522            1028     356.110E-06     403.533E-06
            6522            6524     327.926E-06     340.291E-06
            6523              32     140.337E-03     143.367E-03
            6523             722     154.326E-03     159.355E-03
            6523             994     139.277E-03     142.774E-03
            6523            6525     159.283E-03     161.861E-03
            6524              10     166.621E-03     176.977E-03
            6524             284     181.174E-03     178.860E-03
            6524             722     154.326E-03     159.355E-03
            6524            6525     159.283E-03     161.861E-03
            6525             994     139.277E-03     142.774E-03
            6525             995     144.580E-03     147.071E-03
            6525            6525     159.283E-03     161.861E-03
            6525            6526     159.748E-03     160.654E-03
            6526             283     172.909E-03     168.320E-03
            6526             284     181.174E-03     178.860E-03
            6526            6525     159.283E-03     161.861E-03
            6526            6526     159.748E-03     160.654E-03
            6527             995     144.580E-03     147.071E-03
            6527             996     144.695E-03     147.359E-03
            6527            6526     159.748E-03     160.654E-03
            6527            6527     155.053E-03     157.929E-03
            6528             282     159.709E-03     164.027E-03
            6528             283     172.909E-03     168.320E-03
            6528            6526     159.748E-03     160.654E-03
            6528            6527     155.053E-03     157.929E-03
            6529             996     144.695E-03     147.359E-03
            6529             997     142.043E-03     145.134E-03
            6529            6527     155.053E-03     157.929E-03
            6529            6528     150.673E-03     152.630E-03
            6530             281     155.123E-03     153.772E-03
            6530             282     159.709E-03     164.027E-03
            6530            6527     155.053E-03     157.929E-03
            6530            6528     150.673E-03     152.630E-03
            6531             997     142.043E-03     145.134E-03
            6531             998     138.821E-03     141.490E-03
            6531            6528     150.673E-03     152.630E-03
            6531            6529     145.396E-03     147.617E-03
            6532             280     147.195E-03     148.509E-03
            6532             281     155.123E-03     153.772E-03
            6532            6528     150.673E-03     152.630E-03
            6532            6529     145.396E-03     147.617E-03
            6533             998     138.821E-03     141.490E-03
            6533             999     134.617E-03     137.380E-03
            6533            6529     145.396E-03     147.617E-03
            6533            6530     140.245E-03     141.956E-03
            6534             279     141.238E-03     140.354E-03
            6534             280     147.195E-03     148.509E-03
            6534            6529     145.396E-03     147.617E-03
            6534            6530     140.245E-03     141.956E-03
            6535             999     134.617E-03     137.380E-03
            6535            1000     129.931E-03     132.172E-03
            6535            6530     140.245E-03     141.956E-03
            6535            6531     134.220E-03     136.068E-03
            6536             278     133.133E-03     134.867E-03
            6536             279     141.238E-03     140.354E-03
            6536            6530     140.245E-03     141.956E-03
            6536            6531     134.220E-03     136.068E-03
            6537            1000     129.931E-03     132.172E-03
            6537            1001     124.505E-03     125.617E-03
            6537            6531     134.220E-03     136.068E-03
            6537            6532     127.599E-03     128.292E-03
            6538             277     128.943E-03     125.777E-03
            6538             278     133.133E-03     134.867E-03
            6538            6531     134.220E-03     136.068E-03
            6538            6532     127.599E-03     128.292E-03
            6539            1001     124.505E-03     125.617E-03
            6539            1002     118.543E-03     117.137E-03
            6539            6532     127.599E-03     128.292E-03
            6539            6533     120.131E-03     118.310E-03
            6540             276     122.655E-03     118.058E-03
            6540             277     128.943E-03     125.777E-03
            6540            6532     127.599E-03     128.292E-03
            6540            6533     120.131E-03     118.310E-03
            6541            1002     118.543E-03     117.137E-03
            6541            1003     106.251E-03     106.586E-03
            6541            6533     120.131E-03     118.310E-03
            6541            6534     115.462E-03     117.763E-03
            6542             275     124.227E-03     133.326E-03
            6542             276     122.655E-03     118.058E-03
            6542            6533     120.131E-03     118.310E-03
            6542            6534     115.462E-03     117.763E-03
            6543            1003     106.251E-03     106.586E-03
            6543            1004     99.6922E-03     103.081E-03
            6543            6534     115.462E-03     117.763E-03
            6543            6535     117.375E-03     120.031E-03
            6544             274     136.276E-03     135.108E-03
            6544             275     124.227E-03     133.326E-03
            6544            6534     115.462E-03     117.763E-03
            6544            6535     117.375E-03     120.031E-03
            6545            1004     99.6922E-03     103.081E-03
            6545            1005     103.198E-03     105.177E-03
            6545            6535     117.375E-03     120.031E-03
            6545            6536     116.383E-03     116.996E-03
            6546             273     127.706E-03     124.237E-03
            6546             274     136.276E-03     135.108E-03
            6546            6535     117.375E-03     120.031E-03
            6546            6536     116.383E-03     116.996E-03
            6547            1005     103.198E-03     105.177E-03
            6547            1006     102.220E-03     104.124E-03
            6547            6536     116.383E-03     116.996E-03
            6547            6537     110.964E-03     113.088E-03
            6548             272     115.218E-03     118.645E-03
            6548             273     127.706E-03     124.237E-03
            6548            6536     116.383E-03     116.996E-03
            6548            6537     110.964E-03     113.088E-03
            6549            1006     102.220E-03     104.124E-03
            6549            1007     98.9422E-03     101.114E-03
            6549            6537     110.964E-03     113.088E-03
            6549            6538     105.935E-03     107.284E-03
            6550             271     109.591E-03     108.541E-03
            6550             272     115.218E-03     118.645E-03
            6550            6537     110.964E-03     113.088E-03
            6550            6538     105.935E-03     107.284E-03
            6551            1007     98.9422E-03     101.114E-03
            6551            1008     95.2618E-03     97.0746E-03
            6551            6538     105.935E-03     107.284E-03
            6551            6539     100.284E-03     101.760E-03
            6552             270     101.431E-03     102.305E-03
            6552             271     109.591E-03     108.541E-03
            6552            6538     105.935E-03     107.284E-03
            6552            6539     100.284E-03     101.760E-03
            6553            1008     95.2618E-03     97.0746E-03
            6553            1009     90.8909E-03     92.7054E-03
            6553            6539     100.284E-03     101.760E-03
            6553            6540     94.7126E-03     95.7945E-03
            6554             269     94.6320E-03     94.0951E-03
            6554             270     101.431E-03     102.305E-03
            6554            6539     100.284E-03     101.760E-03
            6554            6540     94.7126E-03     95.7945E-03
            6555            1009     90.8909E-03     92.7054E-03
            6555            1010     86.2040E-03     87.6393E-03
            6555            6540     94.7126E-03     95.7945E-03
            6555            6541     88.5302E-03     89.5443E-03
            6556             268     86.5876E-03     87.2405E-03
            6556             269     94.6320E-03     94.0951E-03
            6556            6540     94.7126E-03     95.7945E-03
            6556            6541     88.5302E-03     89.5443E-03
            6557            1010     86.2040E-03     87.6393E-03
            6557            1011     81.3794E-03     81.8684E-03
            6557            6541     88.5302E-03     89.5443E-03
            6557            6542     81.7433E-03     82.1063E-03
            6558             267     80.3170E-03     78.3642E-03
            6558             268     86.5876E-03     87.2405E-03
            6558            6541     88.5302E-03     89.5443E-03
            6558            6542     81.7433E-03     82.1063E-03
            6559            1011     81.3794E-03     81.8684E-03
            6559            1012     77.1030E-03     75.2080E-03
            6559            6542     81.7433E-03     82.1063E-03
            6559            6543     75.1278E-03     73.1173E-03
            6560             266     73.1507E-03     69.6317E-03
            6560             267     80.3170E-03     78.3642E-03
            6560            6542     81.7433E-03     82.1063E-03
            6560            6543     75.1278E-03     73.1173E-03
            6561            1012     77.1030E-03     75.2080E-03
            6561            1013     65.4225E-03     65.7706E-03
            6561            6543     75.1278E-03     73.1173E-03
            6561            6544     71.9981E-03     73.7654E-03
            6562             265     77.9810E-03     83.8510E-03
            6562             266     73.1507E-03     69.6317E-03
            6562            6543     75.1278E-03     73.1173E-03
            6562            6544     71.9981E-03     73.7654E-03
            6563            1013     65.4225E-03     65.7706E-03
            6563            1014     57.3148E-03     60.5990E-03
            6563            6544     71.9981E-03     73.7654E-03
            6563            6545     73.2315E-03     76.0137E-03
            6564             264     89.3837E-03     89.4591E-03
            6564             265     77.9810E-03     83.8510E-03
            6564            6544     71.9981E-03     73.7654E-03
            6564            6545     73.2315E-03     76.0137E-03
            6565            1014     57.3148E-03     60.5990E-03
            6565            1015     58.9797E-03     60.3698E-03
            6565            6545     73.2315E-03     76.0137E-03
            6565            6546     70.9722E-03     71.2170E-03
            6566             263     80.7920E-03     78.4918E-03
            6566             264     89.3837E-03     89.4591E-03
            6566            6545     73.2315E-03     76.0137E-03
            6566            6546     70.9722E-03     71.2170E-03
            6567            1015     58.9797E-03     60.3698E-03
            6567            1016     56.9099E-03     57.9319E-03
            6567            6546     70.9722E-03     71.2170E-03
            6567            6547     65.0165E-03     66.2972E-03
            6568             262     69.2957E-03     71.8312E-03
            6568             263     80.7920E-03     78.4918E-03
            6568            6546     70.9722E-03     71.2170E-03
            6568            6547     65.0165E-03     66.2972E-03
            6569            1016     56.9099E-03     57.9319E-03
            6569            1017     53.0196E-03     54.1501E-03
            6569            6547     65.0165E-03     66.2972E-03
            6569            6548     59.5608E-03     60.2181E-03
            6570             261     62.9236E-03     62.1640E-03
            6570             262     69.2957E-03     71.8312E-03
            6570            6547     65.0165E-03     66.2972E-03
            6570            6548     59.5608E-03     60.2181E-03
            6571            1017     53.0196E-03     54.1501E-03
            6571            1018     48.9645E-03     49.7655E-03
            6571            6548     59.5608E-03     60.2181E-03
            6571            6549     53.8216E-03     54.4792E-03
            6572             260     54.7821E-03     55.3232E-03
            6572             261     62.9236E-03     62.1640E-03
            6572            6548     59.5608E-03     60.2181E-03
            6572            6549     53.8216E-03     54.4792E-03
            6573            1018     48.9645E-03     49.7655E-03
            6573            1019     44.4823E-03     45.2507E-03
            6573            6549     53.8216E-03     54.4792E-03
            6573            6550     48.2582E-03     48.6009E-03
            6574             259     47.7281E-03     47.4675E-03
            6574             260     54.7821E-03     55.3232E-03
            6574            6549     53.8216E-03     54.4792E-03
            6574            6550     48.2582E-03     48.6009E-03
            6575            1019     44.4823E-03     45.2507E-03
            6575            1020     39.9490E-03     40.4785E-03
            6575            6550     48.2582E-03     48.6009E-03
            6575            6551     42.4519E-03     42.6482E-03
            6576             258     40.1441E-03     40.0410E-03
            6576             259     47.7281E-03     47.4675E-03
            6576            6550     48.2582E-03     48.6009E-03
            6576            6551     42.4519E-03     42.6482E-03
            6577            1020     39.9490E-03     40.4785E-03
            6577            1021     35.1441E-03     35.5738E-03
            6577            6551     42.4519E-03     42.6482E-03
            6577            6552     36.5405E-03     36.4043E-03
            6578             257     32.9369E-03     32.1101E-03
            6578             258     40.1441E-03     40.0410E-03
            6578            6551     42.4519E-03     42.6482E-03
            6578            6552     36.5405E-03     36.4043E-03
            6579            1021     35.1441E-03     35.5738E-03
            6579            1022     30.9466E-03     30.6839E-03
            6579            6552     36.5405E-03     36.4043E-03
            6579            6553     30.2750E-03     29.9599E-03
            6580             256     25.3328E-03     24.5253E-03
            6580             257     32.9369E-03     32.1101E-03
            6580            6552     36.5405E-03     36.4043E-03
            6580            6553     30.2750E-03     29.9599E-03
            6581            1022     30.9466E-03     30.6839E-03
            6581            1023     28.5524E-03     26.3253E-03
            6581            6553     30.2750E-03     29.9599E-03
            6581            6554     25.2960E-03     24.0856E-03
            6582             255     19.3932E-03     18.5606E-03
            6582             256     25.3328E-03     24.5253E-03
            6582            6553     30.2750E-03     29.9599E-03
            6582            6554     25.2960E-03     24.0856E-03
            6583            1023     28.5524E-03     26.3253E-03
            6583            1024     19.1263E-03     19.5726E-03
            6583            6554     25.2960E-03     24.0856E-03
            6583            6555     20.7172E-03     22.6572E-03
            6584             254     21.7066E-03     25.2889E-03
            6584             255     19.3932E-03     18.5606E-03
            6584            6554     25.2960E-03     24.0856E-03
            6584            6555     20.7172E-03     22.6572E-03
            6585            1024     19.1263E-03     19.5726E-03
            6585            1025     11.6234E-03     14.5951E-03
            6585            6555     20.7172E-03     22.6572E-03
            6585            6556     16.9933E-03     19.5618E-03
            6586             253     23.6366E-03     24.6189E-03
            6586             254     21.7066E-03     25.2889E-03
            6586            6555     20.7172E-03     22.6572E-03
            6586            6556     16.9933E-03     19.5618E-03
            6587            1025     11.6234E-03     14.5951E-03
            6587            1026     13.0273E-03     13.2400E-03
            6587            6556     16.9933E-03     19.5618E-03
            6587            6557     13.0950E-03     12.5623E-03
            6588             252     14.0913E-03     11.7364E-03
            6588             253     23.6366E-03     24.6189E-03
            6588            6556     16.9933E-03     19.5618E-03
            6588            6557     13.0950E-03     12.5623E-03
            6589            1026     13.0273E-03     13.2400E-03
            6589            1027     12.3667E-03     9.92267E-03
            6589            6557     13.0950E-03     12.5623E-03
            6589            6558     9.64130E-03     10.0907E-03
            6590             251     7.52781E-03     12.2347E-03
            6590             252     14.0913E-03     11.7364E-03
            6590            6557     13.0950E-03     12.5623E-03
            6590            6558     9.64130E-03     10.0907E-03
            6591              38     6.20296E-03     4.36397E-03
            6591             948     5.22990E-03     5.83712E-03
            6591            1027     12.3667E-03     9.92267E-03
            6591            6558     9.64130E-03     10.0907E-03
            6592              15     4.95143E-03     8.73621E-03
            6592             251     7.52781E-03     12.2347E-03
            6592             948     5.22990E-03     5.83712E-03
            6592            6558     9.64130E-03     10.0907E-03
            6593              12     24.5742E-03     24.3784E-03
            6593             195     1.26273E-03     1.22606E-03
            6593             246     23.6807E-03     23.4852E-03
            6593            6559     1.24506E-03     1.21331E-03
            6594             194     1.26512E-03     1.25198E-03
            6594             195     1.26273E-03     1.22606E-03
            6594            6559     1.24506E-03     1.21331E-03
            6594            6560     1.24458E-03     1.22913E-03
            6595             193     1.25270E-03     1.24822E-03
            6595             194     1.26512E-03     1.25198E-03
            6595            6560     1.24458E-03     1.22913E-03
            6595            6561     1.21194E-03     1.21253E-03
            6596             192     1.25977E-03     1.24672E-03
            6596             193     1.25270E-03     1.24822E-03
            6596            6561     1.21194E-03     1.21253E-03
            6596            6562     1.21034E-03     1.19353E-03
            6597             191     1.26308E-03     1.24706E-03
            6597             192     1.25977E-03     1.24672E-03
            6597            6562     1.21034E-03     1.19353E-03
            6597            6563     1.20933E-03     1.19356E-03
            6598             190     1.25844E-03     1.23630E-03
            6598             191     1.26308E-03     1.24706E-03
            6598            6563     1.20933E-03     1.19356E-03
            6598            6564     1.20090E-03     1.18065E-03
            6599              11     1.24858E-03     1.22942E-03
            6599             190     1.25844E-03     1.23630E-03
            6599            1029     1.19163E-03     1.17322E-03
            6599            6564     1.20090E-03     1.18065E-03
            6600             246     23.6807E-03     23.4852E-03
            6600             247     21.3397E-03     21.2225E-03
            6600            6559     1.24506E-03     1.21331E-03
            6600            6565     1.21157E-03     1.17673E-03
            6601            6559     1.24506E-03     1.21331E-03
            6601            6560     1.24458E-03     1.22913E-03
            6601            6565     1.21157E-03     1.17673E-03
            6601            6566     1.19025E-03     1.14196E-03
            6602            6560     1.24458E-03     1.22913E-03
            6602            6561     1.21194E-03     1.21253E-03
            6602            6566     1.19025E-03     1.14196E-03
            6602            6567     1.09121E-03     1.11103E-03
            6603            6561     1.21194E-03     1.21253E-03
            6603            6562     1.21034E-03     1.19353E-03
            6603            6567     1.09121E-03     1.11103E-03
            6603            6568     1.06423E-03     1.05730E-03
            6604            6562     1.21034E-03     1.19353E-03
            6604            6563     1.20933E-03     1.19356E-03
            6604            6568     1.06423E-03     1.05730E-03
            6604            6569     1.04501E-03     1.03565E-03
            6605            6563     1.20933E-03     1.19356E-03
            6605            6564     1.20090E-03     1.18065E-03
            6605            6569     1.04501E-03     1.03565E-03
            6605            6570     1.03362E-03     1.01919E-03
            6606            1029     1.19163E-03     1.17322E-03
            6606            1030     1.02516E-03     1.01091E-03
            6606            6564     1.20090E-03     1.18065E-03
            6606            6570     1.03362E-03     1.01919E-03
            6607             247     21.3397E-03     21.2225E-03
            6607             248     17.4021E-03     17.3857E-03
            6607            6565     1.21157E-03     1.17673E-03
            6607            6571     1.15928E-03     1.12701E-03
            6608            6565     1.21157E-03     1.17673E-03
            6608            6566     1.19025E-03     1.14196E-03
            6608            6571     1.15928E-03     1.12701E-03
            6608            6572     1.10499E-03     1.00747E-03
            6609            6566     1.19025E-03     1.14196E-03
            6609            6567     1.09121E-03     1.11103E-03
            6609            6572     1.10499E-03     1.00747E-03
            6609            6573     910.024E-06     956.668E-06
            6610            6567     1.09121E-03     1.11103E-03
            6610            6568     1.06423E-03     1.05730E-03
            6610            6573     910.024E-06     956.668E-06
            6610            6574     848.675E-06     840.534E-06
            6611            6568     1.06423E-03     1.05730E-03
            6611            6569     1.04501E-03     1.03565E-03
            6611            6574     848.675E-06     840.534E-06
            6611            6575     786.730E-06     797.125E-06
            6612            6569     1.04501E-03     1.03565E-03
            6612            6570     1.03362E-03     1.01919E-03
            6612            6575     786.730E-06     797.125E-06
            6612            6576     750.161E-06     768.366E-06
            6613            1030     1.02516E-03     1.01091E-03
            6613            1031     745.703E-06     755.611E-06
            6613            6570     1.03362E-03     1.01919E-03
            6613            6576     750.161E-06     768.366E-06
            6614             248     17.4021E-03     17.3857E-03
            6614             249     12.4284E-03     12.4675E-03
            6614            6571     1.15928E-03     1.12701E-03
            6614            6577     1.17267E-03     1.16877E-03
            6615            6571     1.15928E-03     1.12701E-03
            6615            6572     1.10499E-03     1.00747E-03
            6615            6577     1.17267E-03     1.16877E-03
            6615            6578     1.06726E-03     963.708E-06
            6616            6572     1.10499E-03     1.00747E-03
            6616            6573     910.024E-06     956.668E-06
            6616            6578     1.06726E-03     963.708E-06
            6616            6579     725.044E-06     819.612E-06
            6617            6573     910.024E-06     956.668E-06
            6617            6574     848.675E-06     840.534E-06
            6617            6579     725.044E-06     819.612E-06
            6617            6580     594.298E-06     551.601E-06
            6618            6574     848.675E-06     840.534E-06
            6618            6575     786.730E-06     797.125E-06
            6618            6580     594.298E-06     551.601E-06
            6618            6581     481.522E-06     463.262E-06
            6619            6575     786.730E-06     797.125E-06
            6619            6576     750.161E-06     768.366E-06
            6619            6581     481.522E-06     463.262E-06
            6619            6582     428.578E-06     468.565E-06
            6620            1031     745.703E-06     755.611E-06
            6620            1032     415.520E-06     483.704E-06
            6620            6576     750.161E-06     768.366E-06
            6620            6582     428.578E-06     468.565E-06
            6621             249     12.4284E-03     12.4675E-03
            6621             250     7.61204E-03     9.76557E-03
            6621            6577     1.17267E-03     1.16877E-03
            6621            6583     1.43961E-03     1.44017E-03
            6622            6577     1.17267E-03     1.16877E-03
            6622            6578     1.06726E-03     963.708E-06
            6622            6583     1.43961E-03     1.44017E-03
            6622            6584     1.18999E-03     1.10962E-03
            6623            6578     1.06726E-03     963.708E-06
            6623            6579     725.044E-06     819.612E-06
            6623            6584     1.18999E-03     1.10962E-03
            6623            6585     750.463E-06     855.553E-06
            6624            6579     725.044E-06     819.612E-06
            6624            6580     594.298E-06     551.601E-06
            6624            6585     750.463E-06     855.553E-06
            6624            6586     543.870E-06     499.606E-06
            6625            6580     594.298E-06     551.601E-06
            6625            6581     481.522E-06     463.262E-06
            6625            6586     543.870E-06     499.606E-06
            6625            6587     387.325E-06     357.941E-06
            6626            6581     481.522E-06     463.262E-06
            6626            6582     428.578E-06     468.565E-06
            6626            6587     387.325E-06     357.941E-06
            6626            6588     366.886E-06     431.338E-06
            6627            1032     415.520E-06     483.704E-06
            6627            1033     367.715E-06     524.067E-06
            6627            6582     428.578E-06     468.565E-06
            6627            6588     366.886E-06     431.338E-06
            6628              15     4.95143E-03     8.73621E-03
            6628             250     7.61204E-03     9.76557E-03
            6628             949     1.49944E-03     1.52629E-03
            6628            6583     1.43961E-03     1.44017E-03
            6629             949     1.49944E-03     1.52629E-03
            6629             950     1.17882E-03     1.13595E-03
            6629            6583     1.43961E-03     1.44017E-03
            6629            6584     1.18999E-03     1.10962E-03
            6630             950     1.17882E-03     1.13595E-03
            6630             951     804.386E-06     858.428E-06
            6630            6584     1.18999E-03     1.10962E-03
            6630            6585     750.463E-06     855.553E-06
            6631             951     804.386E-06     858.428E-06
            6631             952     565.285E-06     538.913E-06
            6631            6585     750.463E-06     855.553E-06
            6631            6586     543.870E-06     499.606E-06
            6632             952     565.285E-06     538.913E-06
            6632             953     362.567E-06     348.872E-06
            6632            6586     543.870E-06     499.606E-06
            6632            6587     387.325E-06     357.941E-06
            6633             953     362.567E-06     348.872E-06
            6633             954     344.888E-06     439.307E-06
            6633            6587     387.325E-06     357.941E-06
            6633            6588     366.886E-06     431.338E-06
            6634              41     387.561E-06     595.394E-06
            6634             954     344.888E-06     439.307E-06
            6634            1033     367.715E-06     524.067E-06
            6634            6588     366.886E-06     431.338E-06


  Minimum                            273.311E-06     340.291E-06
      At Element                            2144            6522
            Node                               4            6524

  Maximum                            203.016E-03     216.737E-03
      At Element                            5374            5374
            Node                             742             553

           Total                     1.25322E+03     1.28344E+03


Field Output reported at element nodes for region: B737-1.Region_2
   Computation algorithm: EXTRAPOLATE_COMPUTE_AVERAGE
   Averaged at nodes
   Averaging regions: ODB_REGIONS

   Element Label      Node Label         S.Mises         S.Mises
                                          @Loc 1          @Loc 2
-----------------------------------------------------------------
            1732              23     15.8411E-03     16.0190E-03
            1732             471     17.2472E-03     17.2827E-03
            1732             531     27.6058E-03     28.2167E-03
            1732            2480     32.0712E-03     32.1730E-03
            1733             471     17.2472E-03     17.2827E-03
            1733             472     19.1155E-03     18.9830E-03
            1733            2480     32.0712E-03     32.1730E-03
            1733            2481     37.6722E-03     37.2382E-03
            1734             472     19.1155E-03     18.9830E-03
            1734             473     20.0384E-03     19.8816E-03
            1734            2481     37.6722E-03     37.2382E-03
            1734            2482     39.6251E-03     39.1435E-03
            1735             473     20.0384E-03     19.8816E-03
            1735             474     20.4989E-03     20.3437E-03
            1735            2482     39.6251E-03     39.1435E-03
            1735            2483     40.4425E-03     39.9398E-03
            1736             474     20.4989E-03     20.3437E-03
            1736             475     20.0384E-03     19.8816E-03
            1736            2483     40.4425E-03     39.9398E-03
            1736            2484     39.6251E-03     39.1435E-03
            1737             475     20.0384E-03     19.8816E-03
            1737             476     19.1155E-03     18.9830E-03
            1737            2484     39.6251E-03     39.1435E-03
            1737            2485     37.6722E-03     37.2382E-03
            1738             476     19.1155E-03     18.9830E-03
            1738             477     17.2472E-03     17.2827E-03
            1738            2485     37.6722E-03     37.2382E-03
            1738            2486     32.0712E-03     32.1730E-03
            1739               3     15.8411E-03     16.0190E-03
            1739             155     27.6058E-03     28.2167E-03
            1739             477     17.2472E-03     17.2827E-03
            1739            2486     32.0712E-03     32.1730E-03
            1740             530     24.3181E-03     25.0347E-03
            1740             531     27.6058E-03     28.2167E-03
            1740            2480     32.0712E-03     32.1730E-03
            1740            2487     30.1616E-03     30.4174E-03
            1741            2480     32.0712E-03     32.1730E-03
            1741            2481     37.6722E-03     37.2382E-03
            1741            2487     30.1616E-03     30.4174E-03
            1741            2488     38.4291E-03     38.0441E-03
            1742            2481     37.6722E-03     37.2382E-03
            1742            2482     39.6251E-03     39.1435E-03
            1742            2488     38.4291E-03     38.0441E-03
            1742            2489     41.5686E-03     40.9691E-03
            1743            2482     39.6251E-03     39.1435E-03
            1743            2483     40.4425E-03     39.9398E-03
            1743            2489     41.5686E-03     40.9691E-03
            1743            2490     42.2842E-03     41.6503E-03
            1744            2483     40.4425E-03     39.9398E-03
            1744            2484     39.6251E-03     39.1435E-03
            1744            2490     42.2842E-03     41.6503E-03
            1744            2491     41.5686E-03     40.9691E-03
            1745            2484     39.6251E-03     39.1435E-03
            1745            2485     37.6722E-03     37.2382E-03
            1745            2491     41.5686E-03     40.9691E-03
            1745            2492     38.4291E-03     38.0441E-03
            1746            2485     37.6722E-03     37.2382E-03
            1746            2486     32.0712E-03     32.1730E-03
            1746            2492     38.4291E-03     38.0441E-03
            1746            2493     30.1616E-03     30.4174E-03
            1747             154     24.3181E-03     25.0347E-03
            1747             155     27.6058E-03     28.2167E-03
            1747            2486     32.0712E-03     32.1730E-03
            1747            2493     30.1616E-03     30.4174E-03
            1748             529     25.1079E-03     25.4833E-03
            1748             530     24.3181E-03     25.0347E-03
            1748            2487     30.1616E-03     30.4174E-03
            1748            2494     30.1039E-03     30.3675E-03
            1749            2487     30.1616E-03     30.4174E-03
            1749            2488     38.4291E-03     38.0441E-03
            1749            2494     30.1039E-03     30.3675E-03
            1749            2495     38.3467E-03     38.2860E-03
            1750            2488     38.4291E-03     38.0441E-03
            1750            2489     41.5686E-03     40.9691E-03
            1750            2495     38.3467E-03     38.2860E-03
            1750            2496     42.7290E-03     42.3660E-03
            1751            2489     41.5686E-03     40.9691E-03
            1751            2490     42.2842E-03     41.6503E-03
            1751            2496     42.7290E-03     42.3660E-03
            1751            2497     43.8645E-03     43.4116E-03
            1752            2490     42.2842E-03     41.6503E-03
            1752            2491     41.5686E-03     40.9691E-03
            1752            2497     43.8645E-03     43.4116E-03
            1752            2498     42.7290E-03     42.3660E-03
            1753            2491     41.5686E-03     40.9691E-03
            1753            2492     38.4291E-03     38.0441E-03
            1753            2498     42.7290E-03     42.3660E-03
            1753            2499     38.3467E-03     38.2860E-03
            1754            2492     38.4291E-03     38.0441E-03
            1754            2493     30.1616E-03     30.4174E-03
            1754            2499     38.3467E-03     38.2860E-03
            1754            2500     30.1039E-03     30.3675E-03
            1755             153     25.1079E-03     25.4833E-03
            1755             154     24.3181E-03     25.0347E-03
            1755            2493     30.1616E-03     30.4174E-03
            1755            2500     30.1039E-03     30.3675E-03
            1756             528     28.4872E-03     28.4506E-03
            1756             529     25.1079E-03     25.4833E-03
            1756            2494     30.1039E-03     30.3675E-03
            1756            2501     32.3250E-03     32.3885E-03
            1757            2494     30.1039E-03     30.3675E-03
            1757            2495     38.3467E-03     38.2860E-03
            1757            2501     32.3250E-03     32.3885E-03
            1757            2502     38.8830E-03     38.9652E-03
            1758            2495     38.3467E-03     38.2860E-03
            1758            2496     42.7290E-03     42.3660E-03
            1758            2502     38.8830E-03     38.9652E-03
            1758            2503     43.0982E-03     43.0731E-03
            1759            2496     42.7290E-03     42.3660E-03
            1759            2497     43.8645E-03     43.4116E-03
            1759            2503     43.0982E-03     43.0731E-03
            1759            2504     44.5932E-03     44.5423E-03
            1760            2497     43.8645E-03     43.4116E-03
            1760            2498     42.7290E-03     42.3660E-03
            1760            2504     44.5932E-03     44.5423E-03
            1760            2505     43.0982E-03     43.0731E-03
            1761            2498     42.7290E-03     42.3660E-03
            1761            2499     38.3467E-03     38.2860E-03
            1761            2505     43.0982E-03     43.0731E-03
            1761            2506     38.8830E-03     38.9652E-03
            1762            2499     38.3467E-03     38.2860E-03
            1762            2500     30.1039E-03     30.3675E-03
            1762            2506     38.8830E-03     38.9652E-03
            1762            2507     32.3250E-03     32.3885E-03
            1763             152     28.4872E-03     28.4506E-03
            1763             153     25.1079E-03     25.4833E-03
            1763            2500     30.1039E-03     30.3675E-03
            1763            2507     32.3250E-03     32.3885E-03
            1764             527     32.8976E-03     32.7430E-03
            1764             528     28.4872E-03     28.4506E-03
            1764            2501     32.3250E-03     32.3885E-03
            1764            2508     35.4988E-03     35.4166E-03
            1765            2501     32.3250E-03     32.3885E-03
            1765            2502     38.8830E-03     38.9652E-03
            1765            2508     35.4988E-03     35.4166E-03
            1765            2509     40.2775E-03     40.4075E-03
            1766            2502     38.8830E-03     38.9652E-03
            1766            2503     43.0982E-03     43.0731E-03
            1766            2509     40.2775E-03     40.4075E-03
            1766            2510     43.1860E-03     43.5242E-03
            1767            2503     43.0982E-03     43.0731E-03
            1767            2504     44.5932E-03     44.5423E-03
            1767            2510     43.1860E-03     43.5242E-03
            1767            2511     43.9172E-03     44.3235E-03
            1768            2504     44.5932E-03     44.5423E-03
            1768            2505     43.0982E-03     43.0731E-03
            1768            2511     43.9172E-03     44.3235E-03
            1768            2512     43.1860E-03     43.5242E-03
            1769            2505     43.0982E-03     43.0731E-03
            1769            2506     38.8830E-03     38.9652E-03
            1769            2512     43.1860E-03     43.5242E-03
            1769            2513     40.2775E-03     40.4075E-03
            1770            2506     38.8830E-03     38.9652E-03
            1770            2507     32.3250E-03     32.3885E-03
            1770            2513     40.2775E-03     40.4075E-03
            1770            2514     35.4988E-03     35.4166E-03
            1771             151     32.8976E-03     32.7430E-03
            1771             152     28.4872E-03     28.4506E-03
            1771            2507     32.3250E-03     32.3885E-03
            1771            2514     35.4988E-03     35.4166E-03
            1772             526     39.4769E-03     39.3118E-03
            1772             527     32.8976E-03     32.7430E-03
            1772            2508     35.4988E-03     35.4166E-03
            1772            2515     40.6879E-03     40.6468E-03
            1773            2508     35.4988E-03     35.4166E-03
            1773            2509     40.2775E-03     40.4075E-03
            1773            2515     40.6879E-03     40.6468E-03
            1773            2516     41.9578E-03     42.3118E-03
            1774            2509     40.2775E-03     40.4075E-03
            1774            2510     43.1860E-03     43.5242E-03
            1774            2516     41.9578E-03     42.3118E-03
            1774            2517     41.9795E-03     42.6049E-03
            1775            2510     43.1860E-03     43.5242E-03
            1775            2511     43.9172E-03     44.3235E-03
            1775            2517     41.9795E-03     42.6049E-03
            1775            2518     41.9423E-03     42.5680E-03
            1776            2511     43.9172E-03     44.3235E-03
            1776            2512     43.1860E-03     43.5242E-03
            1776            2518     41.9423E-03     42.5680E-03
            1776            2519     41.9795E-03     42.6049E-03
            1777            2512     43.1860E-03     43.5242E-03
            1777            2513     40.2775E-03     40.4075E-03
            1777            2519     41.9795E-03     42.6049E-03
            1777            2520     41.9578E-03     42.3118E-03
            1778            2513     40.2775E-03     40.4075E-03
            1778            2514     35.4988E-03     35.4166E-03
            1778            2520     41.9578E-03     42.3118E-03
            1778            2521     40.6879E-03     40.6468E-03
            1779             150     39.4769E-03     39.3118E-03
            1779             151     32.8976E-03     32.7430E-03
            1779            2514     35.4988E-03     35.4166E-03
            1779            2521     40.6879E-03     40.6468E-03
            1780             525     49.1946E-03     48.2834E-03
            1780             526     39.4769E-03     39.3118E-03
            1780            2515     40.6879E-03     40.6468E-03
            1780            2522     46.3283E-03     45.9392E-03
            1781            2515     40.6879E-03     40.6468E-03
            1781            2516     41.9578E-03     42.3118E-03
            1781            2522     46.3283E-03     45.9392E-03
            1781            2523     41.3746E-03     41.6307E-03
            1782            2516     41.9578E-03     42.3118E-03
            1782            2517     41.9795E-03     42.6049E-03
            1782            2523     41.3746E-03     41.6307E-03
            1782            2524     39.0670E-03     39.5021E-03
            1783            2517     41.9795E-03     42.6049E-03
            1783            2518     41.9423E-03     42.5680E-03
            1783            2524     39.0670E-03     39.5021E-03
            1783            2525     38.8468E-03     39.3379E-03
            1784            2518     41.9423E-03     42.5680E-03
            1784            2519     41.9795E-03     42.6049E-03
            1784            2525     38.8468E-03     39.3379E-03
            1784            2526     39.0670E-03     39.5021E-03
            1785            2519     41.9795E-03     42.6049E-03
            1785            2520     41.9578E-03     42.3118E-03
            1785            2526     39.0670E-03     39.5021E-03
            1785            2527     41.3746E-03     41.6307E-03
            1786            2520     41.9578E-03     42.3118E-03
            1786            2521     40.6879E-03     40.6468E-03
            1786            2527     41.3746E-03     41.6307E-03
            1786            2528     46.3283E-03     45.9392E-03
            1787             149     49.1946E-03     48.2834E-03
            1787             150     39.4769E-03     39.3118E-03
            1787            2521     40.6879E-03     40.6468E-03
            1787            2528     46.3283E-03     45.9392E-03
            1788             524     41.2032E-03     38.7149E-03
            1788             525     49.1946E-03     48.2834E-03
            1788            2522     46.3283E-03     45.9392E-03
            1788            2529     40.6299E-03     38.5352E-03
            1789            2522     46.3283E-03     45.9392E-03
            1789            2523     41.3746E-03     41.6307E-03
            1789            2529     40.6299E-03     38.5352E-03
            1789            2530     39.0470E-03     37.7739E-03
            1790            2523     41.3746E-03     41.6307E-03
            1790            2524     39.0670E-03     39.5021E-03
            1790            2530     39.0470E-03     37.7739E-03
            1790            2531     38.0084E-03     37.3601E-03
            1791            2524     39.0670E-03     39.5021E-03
            1791            2525     38.8468E-03     39.3379E-03
            1791            2531     38.0084E-03     37.3601E-03
            1791            2532     37.9793E-03     37.5277E-03
            1792            2525     38.8468E-03     39.3379E-03
            1792            2526     39.0670E-03     39.5021E-03
            1792            2532     37.9793E-03     37.5277E-03
            1792            2533     38.0084E-03     37.3601E-03
            1793            2526     39.0670E-03     39.5021E-03
            1793            2527     41.3746E-03     41.6307E-03
            1793            2533     38.0084E-03     37.3601E-03
            1793            2534     39.0470E-03     37.7739E-03
            1794            2527     41.3746E-03     41.6307E-03
            1794            2528     46.3283E-03     45.9392E-03
            1794            2534     39.0470E-03     37.7739E-03
            1794            2535     40.6299E-03     38.5352E-03
            1795             148     41.2032E-03     38.7149E-03
            1795             149     49.1946E-03     48.2834E-03
            1795            2528     46.3283E-03     45.9392E-03
            1795            2535     40.6299E-03     38.5352E-03
            1796             523     30.8825E-03     30.6592E-03
            1796             524     41.2032E-03     38.7149E-03
            1796            2529     40.6299E-03     38.5352E-03
            1796            2536     34.8100E-03     33.6208E-03
            1797            2529     40.6299E-03     38.5352E-03
            1797            2530     39.0470E-03     37.7739E-03
            1797            2536     34.8100E-03     33.6208E-03
            1797            2537     38.8942E-03     36.8113E-03
            1798            2530     39.0470E-03     37.7739E-03
            1798            2531     38.0084E-03     37.3601E-03
            1798            2537     38.8942E-03     36.8113E-03
            1798            2538     39.0036E-03     37.0968E-03
            1799            2531     38.0084E-03     37.3601E-03
            1799            2532     37.9793E-03     37.5277E-03
            1799            2538     39.0036E-03     37.0968E-03
            1799            2539     38.9562E-03     37.1534E-03
            1800            2532     37.9793E-03     37.5277E-03
            1800            2533     38.0084E-03     37.3601E-03
            1800            2539     38.9562E-03     37.1534E-03
            1800            2540     39.0036E-03     37.0968E-03
            1801            2533     38.0084E-03     37.3601E-03
            1801            2534     39.0470E-03     37.7739E-03
            1801            2540     39.0036E-03     37.0968E-03
            1801            2541     38.8942E-03     36.8113E-03
            1802            2534     39.0470E-03     37.7739E-03
            1802            2535     40.6299E-03     38.5352E-03
            1802            2541     38.8942E-03     36.8113E-03
            1802            2542     34.8100E-03     33.6208E-03
            1803             147     30.8825E-03     30.6592E-03
            1803             148     41.2032E-03     38.7149E-03
            1803            2535     40.6299E-03     38.5352E-03
            1803            2542     34.8100E-03     33.6208E-03
            1804             522     37.5053E-03     39.0597E-03
            1804             523     30.8825E-03     30.6592E-03
            1804            2536     34.8100E-03     33.6208E-03
            1804            2543     38.7839E-03     39.6234E-03
            1805            2536     34.8100E-03     33.6208E-03
            1805            2537     38.8942E-03     36.8113E-03
            1805            2543     38.7839E-03     39.6234E-03
            1805            2544     40.2664E-03     39.4152E-03
            1806            2537     38.8942E-03     36.8113E-03
            1806            2538     39.0036E-03     37.0968E-03
            1806            2544     40.2664E-03     39.4152E-03
            1806            2545     39.9533E-03     37.8785E-03
            1807            2538     39.0036E-03     37.0968E-03
            1807            2539     38.9562E-03     37.1534E-03
            1807            2545     39.9533E-03     37.8785E-03
            1807            2546     39.4362E-03     37.1137E-03
            1808            2539     38.9562E-03     37.1534E-03
            1808            2540     39.0036E-03     37.0968E-03
            1808            2546     39.4362E-03     37.1137E-03
            1808            2547     39.9533E-03     37.8785E-03
            1809            2540     39.0036E-03     37.0968E-03
            1809            2541     38.8942E-03     36.8113E-03
            1809            2547     39.9533E-03     37.8785E-03
            1809            2548     40.2664E-03     39.4152E-03
            1810            2541     38.8942E-03     36.8113E-03
            1810            2542     34.8100E-03     33.6208E-03
            1810            2548     40.2664E-03     39.4152E-03
            1810            2549     38.7839E-03     39.6234E-03
            1811             146     37.5053E-03     39.0597E-03
            1811             147     30.8825E-03     30.6592E-03
            1811            2542     34.8100E-03     33.6208E-03
            1811            2549     38.7839E-03     39.6234E-03
            1812             521     43.8519E-03     44.0010E-03
            1812             522     37.5053E-03     39.0597E-03
            1812            2543     38.7839E-03     39.6234E-03
            1812            2550     42.8253E-03     43.2697E-03
            1813            2543     38.7839E-03     39.6234E-03
            1813            2544     40.2664E-03     39.4152E-03
            1813            2550     42.8253E-03     43.2697E-03
            1813            2551     41.5837E-03     41.5738E-03
            1814            2544     40.2664E-03     39.4152E-03
            1814            2545     39.9533E-03     37.8785E-03
            1814            2551     41.5837E-03     41.5738E-03
            1814            2552     40.9403E-03     39.6276E-03
            1815            2545     39.9533E-03     37.8785E-03
            1815            2546     39.4362E-03     37.1137E-03
            1815            2552     40.9403E-03     39.6276E-03
            1815            2553     40.5119E-03     38.6460E-03
            1816            2546     39.4362E-03     37.1137E-03
            1816            2547     39.9533E-03     37.8785E-03
            1816            2553     40.5119E-03     38.6460E-03
            1816            2554     40.9403E-03     39.6276E-03
            1817            2547     39.9533E-03     37.8785E-03
            1817            2548     40.2664E-03     39.4152E-03
            1817            2554     40.9403E-03     39.6276E-03
            1817            2555     41.5837E-03     41.5738E-03
            1818            2548     40.2664E-03     39.4152E-03
            1818            2549     38.7839E-03     39.6234E-03
            1818            2555     41.5837E-03     41.5738E-03
            1818            2556     42.8253E-03     43.2697E-03
            1819             145     43.8519E-03     44.0010E-03
            1819             146     37.5053E-03     39.0597E-03
            1819            2549     38.7839E-03     39.6234E-03
            1819            2556     42.8253E-03     43.2697E-03
            1820             520     49.5784E-03     49.4077E-03
            1820             521     43.8519E-03     44.0010E-03
            1820            2550     42.8253E-03     43.2697E-03
            1820            2557     47.1283E-03     47.1565E-03
            1821            2550     42.8253E-03     43.2697E-03
            1821            2551     41.5837E-03     41.5738E-03
            1821            2557     47.1283E-03     47.1565E-03
            1821            2558     43.4704E-03     43.5120E-03
            1822            2551     41.5837E-03     41.5738E-03
            1822            2552     40.9403E-03     39.6276E-03
            1822            2558     43.4704E-03     43.5120E-03
            1822            2559     41.7573E-03     41.2161E-03
            1823            2552     40.9403E-03     39.6276E-03
            1823            2553     40.5119E-03     38.6460E-03
            1823            2559     41.7573E-03     41.2161E-03
            1823            2560     41.2520E-03     40.3135E-03
            1824            2553     40.5119E-03     38.6460E-03
            1824            2554     40.9403E-03     39.6276E-03
            1824            2560     41.2520E-03     40.3135E-03
            1824            2561     41.7573E-03     41.2161E-03
            1825            2554     40.9403E-03     39.6276E-03
            1825            2555     41.5837E-03     41.5738E-03
            1825            2561     41.7573E-03     41.2161E-03
            1825            2562     43.4704E-03     43.5120E-03
            1826            2555     41.5837E-03     41.5738E-03
            1826            2556     42.8253E-03     43.2697E-03
            1826            2562     43.4704E-03     43.5120E-03
            1826            2563     47.1283E-03     47.1565E-03
            1827             144     49.5784E-03     49.4077E-03
            1827             145     43.8519E-03     44.0010E-03
            1827            2556     42.8253E-03     43.2697E-03
            1827            2563     47.1283E-03     47.1565E-03
            1828             519     55.3260E-03     54.6968E-03
            1828             520     49.5784E-03     49.4077E-03
            1828            2557     47.1283E-03     47.1565E-03
            1828            2564     51.6500E-03     51.3824E-03
            1829            2557     47.1283E-03     47.1565E-03
            1829            2558     43.4704E-03     43.5120E-03
            1829            2564     51.6500E-03     51.3824E-03
            1829            2565     45.8315E-03     45.9594E-03
            1830            2558     43.4704E-03     43.5120E-03
            1830            2559     41.7573E-03     41.2161E-03
            1830            2565     45.8315E-03     45.9594E-03
            1830            2566     42.6364E-03     42.6895E-03
            1831            2559     41.7573E-03     41.2161E-03
            1831            2560     41.2520E-03     40.3135E-03
            1831            2566     42.6364E-03     42.6895E-03
            1831            2567     41.5838E-03     41.5284E-03
            1832            2560     41.2520E-03     40.3135E-03
            1832            2561     41.7573E-03     41.2161E-03
            1832            2567     41.5838E-03     41.5284E-03
            1832            2568     42.6364E-03     42.6895E-03
            1833            2561     41.7573E-03     41.2161E-03
            1833            2562     43.4704E-03     43.5120E-03
            1833            2568     42.6364E-03     42.6895E-03
            1833            2569     45.8315E-03     45.9594E-03
            1834            2562     43.4704E-03     43.5120E-03
            1834            2563     47.1283E-03     47.1565E-03
            1834            2569     45.8315E-03     45.9594E-03
            1834            2570     51.6500E-03     51.3824E-03
            1835             143     55.3260E-03     54.6968E-03
            1835             144     49.5784E-03     49.4077E-03
            1835            2563     47.1283E-03     47.1565E-03
            1835            2570     51.6500E-03     51.3824E-03
            1836             518     61.1438E-03     60.4040E-03
            1836             519     55.3260E-03     54.6968E-03
            1836            2564     51.6500E-03     51.3824E-03
            1836            2571     56.3826E-03     56.0122E-03
            1837            2564     51.6500E-03     51.3824E-03
            1837            2565     45.8315E-03     45.9594E-03
            1837            2571     56.3826E-03     56.0122E-03
            1837            2572     48.2863E-03     48.5426E-03
            1838            2565     45.8315E-03     45.9594E-03
            1838            2566     42.6364E-03     42.6895E-03
            1838            2572     48.2863E-03     48.5426E-03
            1838            2573     43.4404E-03     44.1414E-03
            1839            2566     42.6364E-03     42.6895E-03
            1839            2567     41.5838E-03     41.5284E-03
            1839            2573     43.4404E-03     44.1414E-03
            1839            2574     41.9296E-03     42.8180E-03
            1840            2567     41.5838E-03     41.5284E-03
            1840            2568     42.6364E-03     42.6895E-03
            1840            2574     41.9296E-03     42.8180E-03
            1840            2575     43.4404E-03     44.1414E-03
            1841            2568     42.6364E-03     42.6895E-03
            1841            2569     45.8315E-03     45.9594E-03
            1841            2575     43.4404E-03     44.1414E-03
            1841            2576     48.2863E-03     48.5426E-03
            1842            2569     45.8315E-03     45.9594E-03
            1842            2570     51.6500E-03     51.3824E-03
            1842            2576     48.2863E-03     48.5426E-03
            1842            2577     56.3826E-03     56.0122E-03
            1843             142     61.1438E-03     60.4040E-03
            1843             143     55.3260E-03     54.6968E-03
            1843            2570     51.6500E-03     51.3824E-03
            1843            2577     56.3826E-03     56.0122E-03
            1844             517     66.8321E-03     66.0639E-03
            1844             518     61.1438E-03     60.4040E-03
            1844            2571     56.3826E-03     56.0122E-03
            1844            2578     61.0508E-03     60.7438E-03
            1845            2571     56.3826E-03     56.0122E-03
            1845            2572     48.2863E-03     48.5426E-03
            1845            2578     61.0508E-03     60.7438E-03
            1845            2579     51.0454E-03     51.7623E-03
            1846            2572     48.2863E-03     48.5426E-03
            1846            2573     43.4404E-03     44.1414E-03
            1846            2579     51.0454E-03     51.7623E-03
            1846            2580     44.0353E-03     45.5932E-03
            1847            2573     43.4404E-03     44.1414E-03
            1847            2574     41.9296E-03     42.8180E-03
            1847            2580     44.0353E-03     45.5932E-03
            1847            2581     41.2492E-03     43.0855E-03
            1848            2574     41.9296E-03     42.8180E-03
            1848            2575     43.4404E-03     44.1414E-03
            1848            2581     41.2492E-03     43.0855E-03
            1848            2582     44.0353E-03     45.5932E-03
            1849            2575     43.4404E-03     44.1414E-03
            1849            2576     48.2863E-03     48.5426E-03
            1849            2582     44.0353E-03     45.5932E-03
            1849            2583     51.0454E-03     51.7623E-03
            1850            2576     48.2863E-03     48.5426E-03
            1850            2577     56.3826E-03     56.0122E-03
            1850            2583     51.0454E-03     51.7623E-03
            1850            2584     61.0508E-03     60.7438E-03
            1851             141     66.8321E-03     66.0639E-03
            1851             142     61.1438E-03     60.4040E-03
            1851            2577     56.3826E-03     56.0122E-03
            1851            2584     61.0508E-03     60.7438E-03
            1852             516     74.0187E-03     73.7008E-03
            1852             517     66.8321E-03     66.0639E-03
            1852            2578     61.0508E-03     60.7438E-03
            1852            2585     67.0768E-03     67.3238E-03
            1853            2578     61.0508E-03     60.7438E-03
            1853            2579     51.0454E-03     51.7623E-03
            1853            2585     67.0768E-03     67.3238E-03
            1853            2586     53.3389E-03     54.6586E-03
            1854            2579     51.0454E-03     51.7623E-03
            1854            2580     44.0353E-03     45.5932E-03
            1854            2586     53.3389E-03     54.6586E-03
            1854            2587     42.7578E-03     44.7740E-03
            1855            2580     44.0353E-03     45.5932E-03
            1855            2581     41.2492E-03     43.0855E-03
            1855            2587     42.7578E-03     44.7740E-03
            1855            2588     38.9725E-03     41.1778E-03
            1856            2581     41.2492E-03     43.0855E-03
            1856            2582     44.0353E-03     45.5932E-03
            1856            2588     38.9725E-03     41.1778E-03
            1856            2589     42.7578E-03     44.7740E-03
            1857            2582     44.0353E-03     45.5932E-03
            1857            2583     51.0454E-03     51.7623E-03
            1857            2589     42.7578E-03     44.7740E-03
            1857            2590     53.3389E-03     54.6586E-03
            1858            2583     51.0454E-03     51.7623E-03
            1858            2584     61.0508E-03     60.7438E-03
            1858            2590     53.3389E-03     54.6586E-03
            1858            2591     67.0768E-03     67.3238E-03
            1859             140     74.0187E-03     73.7008E-03
            1859             141     66.8321E-03     66.0639E-03
            1859            2584     61.0508E-03     60.7438E-03
            1859            2591     67.0768E-03     67.3238E-03
            1860             515     83.9342E-03     81.5684E-03
            1860             516     74.0187E-03     73.7008E-03
            1860            2585     67.0768E-03     67.3238E-03
            1860            2592     72.4229E-03     70.9828E-03
            1861            2585     67.0768E-03     67.3238E-03
            1861            2586     53.3389E-03     54.6586E-03
            1861            2592     72.4229E-03     70.9828E-03
            1861            2593     51.9628E-03     51.9140E-03
            1862            2586     53.3389E-03     54.6586E-03
            1862            2587     42.7578E-03     44.7740E-03
            1862            2593     51.9628E-03     51.9140E-03
            1862            2594     38.7675E-03     39.7477E-03
            1863            2587     42.7578E-03     44.7740E-03
            1863            2588     38.9725E-03     41.1778E-03
            1863            2594     38.7675E-03     39.7477E-03
            1863            2595     34.5210E-03     36.0646E-03
            1864            2588     38.9725E-03     41.1778E-03
            1864            2589     42.7578E-03     44.7740E-03
            1864            2595     34.5210E-03     36.0646E-03
            1864            2596     38.7675E-03     39.7477E-03
            1865            2589     42.7578E-03     44.7740E-03
            1865            2590     53.3389E-03     54.6586E-03
            1865            2596     38.7675E-03     39.7477E-03
            1865            2597     51.9628E-03     51.9140E-03
            1866            2590     53.3389E-03     54.6586E-03
            1866            2591     67.0768E-03     67.3238E-03
            1866            2597     51.9628E-03     51.9140E-03
            1866            2598     72.4229E-03     70.9828E-03
            1867             139     83.9342E-03     81.5684E-03
            1867             140     74.0187E-03     73.7008E-03
            1867            2591     67.0768E-03     67.3238E-03
            1867            2598     72.4229E-03     70.9828E-03
            1868             514     73.8206E-03     66.8540E-03
            1868             515     83.9342E-03     81.5684E-03
            1868            2592     72.4229E-03     70.9828E-03
            1868            2599     64.7607E-03     58.7228E-03
            1869            2592     72.4229E-03     70.9828E-03
            1869            2593     51.9628E-03     51.9140E-03
            1869            2599     64.7607E-03     58.7228E-03
            1869            2600     49.2595E-03     45.4993E-03
            1870            2593     51.9628E-03     51.9140E-03
            1870            2594     38.7675E-03     39.7477E-03
            1870            2600     49.2595E-03     45.4993E-03
            1870            2601     39.2001E-03     37.6341E-03
            1871            2594     38.7675E-03     39.7477E-03
            1871            2595     34.5210E-03     36.0646E-03
            1871            2601     39.2001E-03     37.6341E-03
            1871            2602     35.5821E-03     34.8612E-03
            1872            2595     34.5210E-03     36.0646E-03
            1872            2596     38.7675E-03     39.7477E-03
            1872            2602     35.5821E-03     34.8612E-03
            1872            2603     39.2001E-03     37.6341E-03
            1873            2596     38.7675E-03     39.7477E-03
            1873            2597     51.9628E-03     51.9140E-03
            1873            2603     39.2001E-03     37.6341E-03
            1873            2604     49.2595E-03     45.4993E-03
            1874            2597     51.9628E-03     51.9140E-03
            1874            2598     72.4229E-03     70.9828E-03
            1874            2604     49.2595E-03     45.4993E-03
            1874            2605     64.7607E-03     58.7228E-03
            1875             138     73.8206E-03     66.8540E-03
            1875             139     83.9342E-03     81.5684E-03
            1875            2598     72.4229E-03     70.9828E-03
            1875            2605     64.7607E-03     58.7228E-03
            1876             513     62.2027E-03     59.6247E-03
            1876             514     73.8206E-03     66.8540E-03
            1876            2599     64.7607E-03     58.7228E-03
            1876            2606     58.4266E-03     55.0622E-03
            1877            2599     64.7607E-03     58.7228E-03
            1877            2600     49.2595E-03     45.4993E-03
            1877            2606     58.4266E-03     55.0622E-03
            1877            2607     49.8080E-03     45.8190E-03
            1878            2600     49.2595E-03     45.4993E-03
            1878            2601     39.2001E-03     37.6341E-03
            1878            2607     49.8080E-03     45.8190E-03
            1878            2608     41.7597E-03     38.2537E-03
            1879            2601     39.2001E-03     37.6341E-03
            1879            2602     35.5821E-03     34.8612E-03
            1879            2608     41.7597E-03     38.2537E-03
            1879            2609     38.5539E-03     35.3690E-03
            1880            2602     35.5821E-03     34.8612E-03
            1880            2603     39.2001E-03     37.6341E-03
            1880            2609     38.5539E-03     35.3690E-03
            1880            2610     41.7597E-03     38.2537E-03
            1881            2603     39.2001E-03     37.6341E-03
            1881            2604     49.2595E-03     45.4993E-03
            1881            2610     41.7597E-03     38.2537E-03
            1881            2611     49.8080E-03     45.8190E-03
            1882            2604     49.2595E-03     45.4993E-03
            1882            2605     64.7607E-03     58.7228E-03
            1882            2611     49.8080E-03     45.8190E-03
            1882            2612     58.4266E-03     55.0622E-03
            1883             137     62.2027E-03     59.6247E-03
            1883             138     73.8206E-03     66.8540E-03
            1883            2605     64.7607E-03     58.7228E-03
            1883            2612     58.4266E-03     55.0622E-03
            1884             512     70.1881E-03     71.7204E-03
            1884             513     62.2027E-03     59.6247E-03
            1884            2606     58.4266E-03     55.0622E-03
            1884            2613     63.9378E-03     65.1744E-03
            1885            2606     58.4266E-03     55.0622E-03
            1885            2607     49.8080E-03     45.8190E-03
            1885            2613     63.9378E-03     65.1744E-03
            1885            2614     51.8493E-03     51.1140E-03
            1886            2607     49.8080E-03     45.8190E-03
            1886            2608     41.7597E-03     38.2537E-03
            1886            2614     51.8493E-03     51.1140E-03
            1886            2615     41.7788E-03     38.5710E-03
            1887            2608     41.7597E-03     38.2537E-03
            1887            2609     38.5539E-03     35.3690E-03
            1887            2615     41.7788E-03     38.5710E-03
            1887            2616     37.5466E-03     33.5426E-03
            1888            2609     38.5539E-03     35.3690E-03
            1888            2610     41.7597E-03     38.2537E-03
            1888            2616     37.5466E-03     33.5426E-03
            1888            2617     41.7788E-03     38.5710E-03
            1889            2610     41.7597E-03     38.2537E-03
            1889            2611     49.8080E-03     45.8190E-03
            1889            2617     41.7788E-03     38.5710E-03
            1889            2618     51.8493E-03     51.1140E-03
            1890            2611     49.8080E-03     45.8190E-03
            1890            2612     58.4266E-03     55.0622E-03
            1890            2618     51.8493E-03     51.1140E-03
            1890            2619     63.9378E-03     65.1744E-03
            1891             136     70.1881E-03     71.7204E-03
            1891             137     62.2027E-03     59.6247E-03
            1891            2612     58.4266E-03     55.0622E-03
            1891            2619     63.9378E-03     65.1744E-03
            1892             511     76.9357E-03     76.5595E-03
            1892             512     70.1881E-03     71.7204E-03
            1892            2613     63.9378E-03     65.1744E-03
            1892            2620     68.7156E-03     69.1614E-03
            1893            2613     63.9378E-03     65.1744E-03
            1893            2614     51.8493E-03     51.1140E-03
            1893            2620     68.7156E-03     69.1614E-03
            1893            2621     53.9036E-03     54.2455E-03
            1894            2614     51.8493E-03     51.1140E-03
            1894            2615     41.7788E-03     38.5710E-03
            1894            2621     53.9036E-03     54.2455E-03
            1894            2622     42.6492E-03     40.7431E-03
            1895            2615     41.7788E-03     38.5710E-03
            1895            2616     37.5466E-03     33.5426E-03
            1895            2622     42.6492E-03     40.7431E-03
            1895            2623     37.9868E-03     34.7586E-03
            1896            2616     37.5466E-03     33.5426E-03
            1896            2617     41.7788E-03     38.5710E-03
            1896            2623     37.9868E-03     34.7586E-03
            1896            2624     42.6492E-03     40.7431E-03
            1897            2617     41.7788E-03     38.5710E-03
            1897            2618     51.8493E-03     51.1140E-03
            1897            2624     42.6492E-03     40.7431E-03
            1897            2625     53.9036E-03     54.2455E-03
            1898            2618     51.8493E-03     51.1140E-03
            1898            2619     63.9378E-03     65.1744E-03
            1898            2625     53.9036E-03     54.2455E-03
            1898            2626     68.7156E-03     69.1614E-03
            1899             135     76.9357E-03     76.5595E-03
            1899             136     70.1881E-03     71.7204E-03
            1899            2619     63.9378E-03     65.1744E-03
            1899            2626     68.7156E-03     69.1614E-03
            1900             510     82.7741E-03     82.0419E-03
            1900             511     76.9357E-03     76.5595E-03
            1900            2620     68.7156E-03     69.1614E-03
            1900            2627     73.4194E-03     73.1344E-03
            1901            2620     68.7156E-03     69.1614E-03
            1901            2621     53.9036E-03     54.2455E-03
            1901            2627     73.4194E-03     73.1344E-03
            1901            2628     56.3226E-03     56.3431E-03
            1902            2621     53.9036E-03     54.2455E-03
            1902            2622     42.6492E-03     40.7431E-03
            1902            2628     56.3226E-03     56.3431E-03
            1902            2629     43.6294E-03     42.6691E-03
            1903            2622     42.6492E-03     40.7431E-03
            1903            2623     37.9868E-03     34.7586E-03
            1903            2629     43.6294E-03     42.6691E-03
            1903            2630     38.6785E-03     36.8790E-03
            1904            2623     37.9868E-03     34.7586E-03
            1904            2624     42.6492E-03     40.7431E-03
            1904            2630     38.6785E-03     36.8790E-03
            1904            2631     43.6294E-03     42.6691E-03
            1905            2624     42.6492E-03     40.7431E-03
            1905            2625     53.9036E-03     54.2455E-03
            1905            2631     43.6294E-03     42.6691E-03
            1905            2632     56.3226E-03     56.3431E-03
            1906            2625     53.9036E-03     54.2455E-03
            1906            2626     68.7156E-03     69.1614E-03
            1906            2632     56.3226E-03     56.3431E-03
            1906            2633     73.4194E-03     73.1344E-03
            1907             134     82.7741E-03     82.0419E-03
            1907             135     76.9357E-03     76.5595E-03
            1907            2626     68.7156E-03     69.1614E-03
            1907            2633     73.4194E-03     73.1344E-03
            1908             509     88.2650E-03     87.0463E-03
            1908             510     82.7741E-03     82.0419E-03
            1908            2627     73.4194E-03     73.1344E-03
            1908            2634     77.9784E-03     77.2963E-03
            1909            2627     73.4194E-03     73.1344E-03
            1909            2628     56.3226E-03     56.3431E-03
            1909            2634     77.9784E-03     77.2963E-03
            1909            2635     59.0317E-03     58.9147E-03
            1910            2628     56.3226E-03     56.3431E-03
            1910            2629     43.6294E-03     42.6691E-03
            1910            2635     59.0317E-03     58.9147E-03
            1910            2636     44.7966E-03     44.4746E-03
            1911            2629     43.6294E-03     42.6691E-03
            1911            2630     38.6785E-03     36.8790E-03
            1911            2636     44.7966E-03     44.4746E-03
            1911            2637     39.2216E-03     38.6662E-03
            1912            2630     38.6785E-03     36.8790E-03
            1912            2631     43.6294E-03     42.6691E-03
            1912            2637     39.2216E-03     38.6662E-03
            1912            2638     44.7966E-03     44.4746E-03
            1913            2631     43.6294E-03     42.6691E-03
            1913            2632     56.3226E-03     56.3431E-03
            1913            2638     44.7966E-03     44.4746E-03
            1913            2639     59.0317E-03     58.9147E-03
            1914            2632     56.3226E-03     56.3431E-03
            1914            2633     73.4194E-03     73.1344E-03
            1914            2639     59.0317E-03     58.9147E-03
            1914            2640     77.9784E-03     77.2963E-03
            1915             133     88.2650E-03     87.0463E-03
            1915             134     82.7741E-03     82.0419E-03
            1915            2633     73.4194E-03     73.1344E-03
            1915            2640     77.9784E-03     77.2963E-03
            1916             508     93.6326E-03     92.3178E-03
            1916             509     88.2650E-03     87.0463E-03
            1916            2634     77.9784E-03     77.2963E-03
            1916            2641     82.5590E-03     81.7380E-03
            1917            2634     77.9784E-03     77.2963E-03
            1917            2635     59.0317E-03     58.9147E-03
            1917            2641     82.5590E-03     81.7380E-03
            1917            2642     61.9660E-03     61.9824E-03
            1918            2635     59.0317E-03     58.9147E-03
            1918            2636     44.7966E-03     44.4746E-03
            1918            2642     61.9660E-03     61.9824E-03
            1918            2643     46.0515E-03     46.4544E-03
            1919            2636     44.7966E-03     44.4746E-03
            1919            2637     39.2216E-03     38.6662E-03
            1919            2643     46.0515E-03     46.4544E-03
            1919            2644     39.6564E-03     40.1020E-03
            1920            2637     39.2216E-03     38.6662E-03
            1920            2638     44.7966E-03     44.4746E-03
            1920            2644     39.6564E-03     40.1020E-03
            1920            2645     46.0515E-03     46.4544E-03
            1921            2638     44.7966E-03     44.4746E-03
            1921            2639     59.0317E-03     58.9147E-03
            1921            2645     46.0515E-03     46.4544E-03
            1921            2646     61.9660E-03     61.9824E-03
            1922            2639     59.0317E-03     58.9147E-03
            1922            2640     77.9784E-03     77.2963E-03
            1922            2646     61.9660E-03     61.9824E-03
            1922            2647     82.5590E-03     81.7380E-03
            1923             132     93.6326E-03     92.3178E-03
            1923             133     88.2650E-03     87.0463E-03
            1923            2640     77.9784E-03     77.2963E-03
            1923            2647     82.5590E-03     81.7380E-03
            1924             507     99.1372E-03     97.8002E-03
            1924             508     93.6326E-03     92.3178E-03
            1924            2641     82.5590E-03     81.7380E-03
            1924            2648     87.2392E-03     86.5183E-03
            1925            2641     82.5590E-03     81.7380E-03
            1925            2642     61.9660E-03     61.9824E-03
            1925            2648     87.2392E-03     86.5183E-03
            1925            2649     64.7589E-03     65.1616E-03
            1926            2642     61.9660E-03     61.9824E-03
            1926            2643     46.0515E-03     46.4544E-03
            1926            2649     64.7589E-03     65.1616E-03
            1926            2650     47.2551E-03     48.6288E-03
            1927            2643     46.0515E-03     46.4544E-03
            1927            2644     39.6564E-03     40.1020E-03
            1927            2650     47.2551E-03     48.6288E-03
            1927            2651     40.3335E-03     42.1707E-03
            1928            2644     39.6564E-03     40.1020E-03
            1928            2645     46.0515E-03     46.4544E-03
            1928            2651     40.3335E-03     42.1707E-03
            1928            2652     47.2551E-03     48.6288E-03
            1929            2645     46.0515E-03     46.4544E-03
            1929            2646     61.9660E-03     61.9824E-03
            1929            2652     47.2551E-03     48.6288E-03
            1929            2653     64.7589E-03     65.1616E-03
            1930            2646     61.9660E-03     61.9824E-03
            1930            2647     82.5590E-03     81.7380E-03
            1930            2653     64.7589E-03     65.1616E-03
            1930            2654     87.2392E-03     86.5183E-03
            1931             131     99.1372E-03     97.8002E-03
            1931             132     93.6326E-03     92.3178E-03
            1931            2647     82.5590E-03     81.7380E-03
            1931            2654     87.2392E-03     86.5183E-03
            1932             506     104.305E-03     103.086E-03
            1932             507     99.1372E-03     97.8002E-03
            1932            2648     87.2392E-03     86.5183E-03
            1932            2655     91.6590E-03     91.3186E-03
            1933            2648     87.2392E-03     86.5183E-03
            1933            2649     64.7589E-03     65.1616E-03
            1933            2655     91.6590E-03     91.3186E-03
            1933            2656     67.7924E-03     69.1730E-03
            1934            2649     64.7589E-03     65.1616E-03
            1934            2650     47.2551E-03     48.6288E-03
            1934            2656     67.7924E-03     69.1730E-03
            1934            2657     48.1475E-03     50.8940E-03
            1935            2650     47.2551E-03     48.6288E-03
            1935            2651     40.3335E-03     42.1707E-03
            1935            2657     48.1475E-03     50.8940E-03
            1935            2658     39.7238E-03     42.9936E-03
            1936            2651     40.3335E-03     42.1707E-03
            1936            2652     47.2551E-03     48.6288E-03
            1936            2658     39.7238E-03     42.9936E-03
            1936            2659     48.1475E-03     50.8940E-03
            1937            2652     47.2551E-03     48.6288E-03
            1937            2653     64.7589E-03     65.1616E-03
            1937            2659     48.1475E-03     50.8940E-03
            1937            2660     67.7924E-03     69.1730E-03
            1938            2653     64.7589E-03     65.1616E-03
            1938            2654     87.2392E-03     86.5183E-03
            1938            2660     67.7924E-03     69.1730E-03
            1938            2661     91.6590E-03     91.3186E-03
            1939             130     104.305E-03     103.086E-03
            1939             131     99.1372E-03     97.8002E-03
            1939            2654     87.2392E-03     86.5183E-03
            1939            2661     91.6590E-03     91.3186E-03
            1940             505     110.977E-03     110.754E-03
            1940             506     104.305E-03     103.086E-03
            1940            2655     91.6590E-03     91.3186E-03
            1940            2662     97.3942E-03     98.0926E-03
            1941            2655     91.6590E-03     91.3186E-03
            1941            2656     67.7924E-03     69.1730E-03
            1941            2662     97.3942E-03     98.0926E-03
            1941            2663     69.9514E-03     72.0781E-03
            1942            2656     67.7924E-03     69.1730E-03
            1942            2657     48.1475E-03     50.8940E-03
            1942            2663     69.9514E-03     72.0781E-03
            1942            2664     46.6578E-03     49.8359E-03
            1943            2657     48.1475E-03     50.8940E-03
            1943            2658     39.7238E-03     42.9936E-03
            1943            2664     46.6578E-03     49.8359E-03
            1943            2665     37.2243E-03     40.9465E-03
            1944            2658     39.7238E-03     42.9936E-03
            1944            2659     48.1475E-03     50.8940E-03
            1944            2665     37.2243E-03     40.9465E-03
            1944            2666     46.6578E-03     49.8359E-03
            1945            2659     48.1475E-03     50.8940E-03
            1945            2660     67.7924E-03     69.1730E-03
            1945            2666     46.6578E-03     49.8359E-03
            1945            2667     69.9514E-03     72.0781E-03
            1946            2660     67.7924E-03     69.1730E-03
            1946            2661     91.6590E-03     91.3186E-03
            1946            2667     69.9514E-03     72.0781E-03
            1946            2668     97.3942E-03     98.0926E-03
            1947             129     110.977E-03     110.754E-03
            1947             130     104.305E-03     103.086E-03
            1947            2661     91.6590E-03     91.3186E-03
            1947            2668     97.3942E-03     98.0926E-03
            1948             504     120.297E-03     116.455E-03
            1948             505     110.977E-03     110.754E-03
            1948            2662     97.3942E-03     98.0926E-03
            1948            2669     101.800E-03     99.0197E-03
            1949            2662     97.3942E-03     98.0926E-03
            1949            2663     69.9514E-03     72.0781E-03
            1949            2669     101.800E-03     99.0197E-03
            1949            2670     67.6149E-03     66.5841E-03
            1950            2663     69.9514E-03     72.0781E-03
            1950            2664     46.6578E-03     49.8359E-03
            1950            2670     67.6149E-03     66.5841E-03
            1950            2671     41.7962E-03     42.8104E-03
            1951            2664     46.6578E-03     49.8359E-03
            1951            2665     37.2243E-03     40.9465E-03
            1951            2671     41.7962E-03     42.8104E-03
            1951            2672     31.6668E-03     34.0366E-03
            1952            2665     37.2243E-03     40.9465E-03
            1952            2666     46.6578E-03     49.8359E-03
            1952            2672     31.6668E-03     34.0366E-03
            1952            2673     41.7962E-03     42.8104E-03
            1953            2666     46.6578E-03     49.8359E-03
            1953            2667     69.9514E-03     72.0781E-03
            1953            2673     41.7962E-03     42.8104E-03
            1953            2674     67.6149E-03     66.5841E-03
            1954            2667     69.9514E-03     72.0781E-03
            1954            2668     97.3942E-03     98.0926E-03
            1954            2674     67.6149E-03     66.5841E-03
            1954            2675     101.800E-03     99.0197E-03
            1955             128     120.297E-03     116.455E-03
            1955             129     110.977E-03     110.754E-03
            1955            2668     97.3942E-03     98.0926E-03
            1955            2675     101.800E-03     99.0197E-03
            1956             503     110.610E-03     99.7506E-03
            1956             504     120.297E-03     116.455E-03
            1956            2669     101.800E-03     99.0197E-03
            1956            2676     93.6923E-03     83.9895E-03
            1957            2669     101.800E-03     99.0197E-03
            1957            2670     67.6149E-03     66.5841E-03
            1957            2676     93.6923E-03     83.9895E-03
            1957            2677     64.5018E-03     58.0005E-03
            1958            2670     67.6149E-03     66.5841E-03
            1958            2671     41.7962E-03     42.8104E-03
            1958            2677     64.5018E-03     58.0005E-03
            1958            2678     43.2913E-03     40.4740E-03
            1959            2671     41.7962E-03     42.8104E-03
            1959            2672     31.6668E-03     34.0366E-03
            1959            2678     43.2913E-03     40.4740E-03
            1959            2679     34.3535E-03     33.1753E-03
            1960            2672     31.6668E-03     34.0366E-03
            1960            2673     41.7962E-03     42.8104E-03
            1960            2679     34.3535E-03     33.1753E-03
            1960            2680     43.2913E-03     40.4740E-03
            1961            2673     41.7962E-03     42.8104E-03
            1961            2674     67.6149E-03     66.5841E-03
            1961            2680     43.2913E-03     40.4740E-03
            1961            2681     64.5018E-03     58.0005E-03
            1962            2674     67.6149E-03     66.5841E-03
            1962            2675     101.800E-03     99.0197E-03
            1962            2681     64.5018E-03     58.0005E-03
            1962            2682     93.6923E-03     83.9895E-03
            1963             127     110.610E-03     99.7506E-03
            1963             128     120.297E-03     116.455E-03
            1963            2675     101.800E-03     99.0197E-03
            1963            2682     93.6923E-03     83.9895E-03
            1964             502     99.1900E-03     94.9849E-03
            1964             503     110.610E-03     99.7506E-03
            1964            2676     93.6923E-03     83.9895E-03
            1964            2683     88.0430E-03     83.1384E-03
            1965            2676     93.6923E-03     83.9895E-03
            1965            2677     64.5018E-03     58.0005E-03
            1965            2683     88.0430E-03     83.1384E-03
            1965            2684     65.8656E-03     60.4391E-03
            1966            2677     64.5018E-03     58.0005E-03
            1966            2678     43.2913E-03     40.4740E-03
            1966            2684     65.8656E-03     60.4391E-03
            1966            2685     46.9605E-03     42.1468E-03
            1967            2678     43.2913E-03     40.4740E-03
            1967            2679     34.3535E-03     33.1753E-03
            1967            2685     46.9605E-03     42.1468E-03
            1967            2686     39.0859E-03     34.7074E-03
            1968            2679     34.3535E-03     33.1753E-03
            1968            2680     43.2913E-03     40.4740E-03
            1968            2686     39.0859E-03     34.7074E-03
            1968            2687     46.9605E-03     42.1468E-03
            1969            2680     43.2913E-03     40.4740E-03
            1969            2681     64.5018E-03     58.0005E-03
            1969            2687     46.9605E-03     42.1468E-03
            1969            2688     65.8656E-03     60.4391E-03
            1970            2681     64.5018E-03     58.0005E-03
            1970            2682     93.6923E-03     83.9895E-03
            1970            2688     65.8656E-03     60.4391E-03
            1970            2689     88.0430E-03     83.1384E-03
            1971             126     99.1900E-03     94.9849E-03
            1971             127     110.610E-03     99.7506E-03
            1971            2682     93.6923E-03     83.9895E-03
            1971            2689     88.0430E-03     83.1384E-03
            1972             501     106.568E-03     108.121E-03
            1972             502     99.1900E-03     94.9849E-03
            1972            2683     88.0430E-03     83.1384E-03
            1972            2690     93.8425E-03     95.5125E-03
            1973            2683     88.0430E-03     83.1384E-03
            1973            2684     65.8656E-03     60.4391E-03
            1973            2690     93.8425E-03     95.5125E-03
            1973            2691     68.6077E-03     68.3864E-03
            1974            2684     65.8656E-03     60.4391E-03
            1974            2685     46.9605E-03     42.1468E-03
            1974            2691     68.6077E-03     68.3864E-03
            1974            2692     46.4073E-03     42.6733E-03
            1975            2685     46.9605E-03     42.1468E-03
            1975            2686     39.0859E-03     34.7074E-03
            1975            2692     46.4073E-03     42.6733E-03
            1975            2693     36.7163E-03     31.4778E-03
            1976            2686     39.0859E-03     34.7074E-03
            1976            2687     46.9605E-03     42.1468E-03
            1976            2693     36.7163E-03     31.4778E-03
            1976            2694     46.4073E-03     42.6733E-03
            1977            2687     46.9605E-03     42.1468E-03
            1977            2688     65.8656E-03     60.4391E-03
            1977            2694     46.4073E-03     42.6733E-03
            1977            2695     68.6077E-03     68.3864E-03
            1978            2688     65.8656E-03     60.4391E-03
            1978            2689     88.0430E-03     83.1384E-03
            1978            2695     68.6077E-03     68.3864E-03
            1978            2696     93.8425E-03     95.5125E-03
            1979             125     106.568E-03     108.121E-03
            1979             126     99.1900E-03     94.9849E-03
            1979            2689     88.0430E-03     83.1384E-03
            1979            2696     93.8425E-03     95.5125E-03
            1980             500     112.930E-03     112.081E-03
            1980             501     106.568E-03     108.121E-03
            1980            2690     93.8425E-03     95.5125E-03
            1980            2697     98.4571E-03     98.8978E-03
            1981            2690     93.8425E-03     95.5125E-03
            1981            2691     68.6077E-03     68.3864E-03
            1981            2697     98.4571E-03     98.8978E-03
            1981            2698     70.8669E-03     71.7945E-03
            1982            2691     68.6077E-03     68.3864E-03
            1982            2692     46.4073E-03     42.6733E-03
            1982            2698     70.8669E-03     71.7945E-03
            1982            2699     47.1930E-03     45.2190E-03
            1983            2692     46.4073E-03     42.6733E-03
            1983            2693     36.7163E-03     31.4778E-03
            1983            2699     47.1930E-03     45.2190E-03
            1983            2700     36.6365E-03     32.5632E-03
            1984            2693     36.7163E-03     31.4778E-03
            1984            2694     46.4073E-03     42.6733E-03
            1984            2700     36.6365E-03     32.5632E-03
            1984            2701     47.1930E-03     45.2190E-03
            1985            2694     46.4073E-03     42.6733E-03
            1985            2695     68.6077E-03     68.3864E-03
            1985            2701     47.1930E-03     45.2190E-03
            1985            2702     70.8669E-03     71.7945E-03
            1986            2695     68.6077E-03     68.3864E-03
            1986            2696     93.8425E-03     95.5125E-03
            1986            2702     70.8669E-03     71.7945E-03
            1986            2703     98.4571E-03     98.8978E-03
            1987             124     112.930E-03     112.081E-03
            1987             125     106.568E-03     108.121E-03
            1987            2696     93.8425E-03     95.5125E-03
            1987            2703     98.4571E-03     98.8978E-03
            1988             499     118.479E-03     117.262E-03
            1988             500     112.930E-03     112.081E-03
            1988            2697     98.4571E-03     98.8978E-03
            1988            2704     103.014E-03     102.489E-03
            1989            2697     98.4571E-03     98.8978E-03
            1989            2698     70.8669E-03     71.7945E-03
            1989            2704     103.014E-03     102.489E-03
            1989            2705     73.3015E-03     73.4819E-03
            1990            2698     70.8669E-03     71.7945E-03
            1990            2699     47.1930E-03     45.2190E-03
            1990            2705     73.3015E-03     73.4819E-03
            1990            2706     48.1982E-03     47.1924E-03
            1991            2699     47.1930E-03     45.2190E-03
            1991            2700     36.6365E-03     32.5632E-03
            1991            2706     48.1982E-03     47.1924E-03
            1991            2707     37.3420E-03     35.1364E-03
            1992            2700     36.6365E-03     32.5632E-03
            1992            2701     47.1930E-03     45.2190E-03
            1992            2707     37.3420E-03     35.1364E-03
            1992            2708     48.1982E-03     47.1924E-03
            1993            2701     47.1930E-03     45.2190E-03
            1993            2702     70.8669E-03     71.7945E-03
            1993            2708     48.1982E-03     47.1924E-03
            1993            2709     73.3015E-03     73.4819E-03
            1994            2702     70.8669E-03     71.7945E-03
            1994            2703     98.4571E-03     98.8978E-03
            1994            2709     73.3015E-03     73.4819E-03
            1994            2710     103.014E-03     102.489E-03
            1995             123     118.479E-03     117.262E-03
            1995             124     112.930E-03     112.081E-03
            1995            2703     98.4571E-03     98.8978E-03
            1995            2710     103.014E-03     102.489E-03
            1996             498     123.552E-03     121.781E-03
            1996             499     118.479E-03     117.262E-03
            1996            2704     103.014E-03     102.489E-03
            1996            2711     107.300E-03     106.281E-03
            1997            2704     103.014E-03     102.489E-03
            1997            2705     73.3015E-03     73.4819E-03
            1997            2711     107.300E-03     106.281E-03
            1997            2712     76.0125E-03     75.8816E-03
            1998            2705     73.3015E-03     73.4819E-03
            1998            2706     48.1982E-03     47.1924E-03
            1998            2712     76.0125E-03     75.8816E-03
            1998            2713     49.4868E-03     49.1451E-03
            1999            2706     48.1982E-03     47.1924E-03
            1999            2707     37.3420E-03     35.1364E-03
            1999            2713     49.4868E-03     49.1451E-03
            1999            2714     37.9972E-03     37.3084E-03
            2000            2707     37.3420E-03     35.1364E-03
            2000            2708     48.1982E-03     47.1924E-03
            2000            2714     37.9972E-03     37.3084E-03
            2000            2715     49.4868E-03     49.1451E-03
            2001            2708     48.1982E-03     47.1924E-03
            2001            2709     73.3015E-03     73.4819E-03
            2001            2715     49.4868E-03     49.1451E-03
            2001            2716     76.0125E-03     75.8816E-03
            2002            2709     73.3015E-03     73.4819E-03
            2002            2710     103.014E-03     102.489E-03
            2002            2716     76.0125E-03     75.8816E-03
            2002            2717     107.300E-03     106.281E-03
            2003             122     123.552E-03     121.781E-03
            2003             123     118.479E-03     117.262E-03
            2003            2710     103.014E-03     102.489E-03
            2003            2717     107.300E-03     106.281E-03
            2004             497     128.486E-03     126.635E-03
            2004             498     123.552E-03     121.781E-03
            2004            2711     107.300E-03     106.281E-03
            2004            2718     111.583E-03     110.434E-03
            2005            2711     107.300E-03     106.281E-03
            2005            2712     76.0125E-03     75.8816E-03
            2005            2718     111.583E-03     110.434E-03
            2005            2719     78.9237E-03     78.9360E-03
            2006            2712     76.0125E-03     75.8816E-03
            2006            2713     49.4868E-03     49.1451E-03
            2006            2719     78.9237E-03     78.9360E-03
            2006            2720     50.8682E-03     51.4161E-03
            2007            2713     49.4868E-03     49.1451E-03
            2007            2714     37.9972E-03     37.3084E-03
            2007            2720     50.8682E-03     51.4161E-03
            2007            2721     38.5680E-03     39.1920E-03
            2008            2714     37.9972E-03     37.3084E-03
            2008            2715     49.4868E-03     49.1451E-03
            2008            2721     38.5680E-03     39.1920E-03
            2008            2722     50.8682E-03     51.4161E-03
            2009            2715     49.4868E-03     49.1451E-03
            2009            2716     76.0125E-03     75.8816E-03
            2009            2722     50.8682E-03     51.4161E-03
            2009            2723     78.9237E-03     78.9360E-03
            2010            2716     76.0125E-03     75.8816E-03
            2010            2717     107.300E-03     106.281E-03
            2010            2723     78.9237E-03     78.9360E-03
            2010            2724     111.583E-03     110.434E-03
            2011             121     128.486E-03     126.635E-03
            2011             122     123.552E-03     121.781E-03
            2011            2717     107.300E-03     106.281E-03
            2011            2724     111.583E-03     110.434E-03
            2012             496     133.545E-03     131.768E-03
            2012             497     128.486E-03     126.635E-03
            2012            2718     111.583E-03     110.434E-03
            2012            2725     115.939E-03     115.005E-03
            2013            2718     111.583E-03     110.434E-03
            2013            2719     78.9237E-03     78.9360E-03
            2013            2725     115.939E-03     115.005E-03
            2013            2726     81.6517E-03     82.2280E-03
            2014            2719     78.9237E-03     78.9360E-03
            2014            2720     50.8682E-03     51.4161E-03
            2014            2726     81.6517E-03     82.2280E-03
            2014            2727     52.2415E-03     54.1203E-03
            2015            2720     50.8682E-03     51.4161E-03
            2015            2721     38.5680E-03     39.1920E-03
            2015            2727     52.2415E-03     54.1203E-03
            2015            2728     39.5121E-03     42.0260E-03
            2016            2721     38.5680E-03     39.1920E-03
            2016            2722     50.8682E-03     51.4161E-03
            2016            2728     39.5121E-03     42.0260E-03
            2016            2729     52.2415E-03     54.1203E-03
            2017            2722     50.8682E-03     51.4161E-03
            2017            2723     78.9237E-03     78.9360E-03
            2017            2729     52.2415E-03     54.1203E-03
            2017            2730     81.6517E-03     82.2280E-03
            2018            2723     78.9237E-03     78.9360E-03
            2018            2724     111.583E-03     110.434E-03
            2018            2730     81.6517E-03     82.2280E-03
            2018            2731     115.939E-03     115.005E-03
            2019             120     133.545E-03     131.768E-03
            2019             121     128.486E-03     126.635E-03
            2019            2724     111.583E-03     110.434E-03
            2019            2731     115.939E-03     115.005E-03
            2020             495     138.113E-03     136.526E-03
            2020             496     133.545E-03     131.768E-03
            2020            2725     115.939E-03     115.005E-03
            2020            2732     119.924E-03     119.620E-03
            2021            2725     115.939E-03     115.005E-03
            2021            2726     81.6517E-03     82.2280E-03
            2021            2732     119.924E-03     119.620E-03
            2021            2733     84.6396E-03     86.6079E-03
            2022            2726     81.6517E-03     82.2280E-03
            2022            2727     52.2415E-03     54.1203E-03
            2022            2733     84.6396E-03     86.6079E-03
            2022            2734     53.2289E-03     56.9100E-03
            2023            2727     52.2415E-03     54.1203E-03
            2023            2728     39.5121E-03     42.0260E-03
            2023            2734     53.2289E-03     56.9100E-03
            2023            2735     38.9134E-03     43.3180E-03
            2024            2728     39.5121E-03     42.0260E-03
            2024            2729     52.2415E-03     54.1203E-03
            2024            2735     38.9134E-03     43.3180E-03
            2024            2736     53.2289E-03     56.9100E-03
            2025            2729     52.2415E-03     54.1203E-03
            2025            2730     81.6517E-03     82.2280E-03
            2025            2736     53.2289E-03     56.9100E-03
            2025            2737     84.6396E-03     86.6079E-03
            2026            2730     81.6517E-03     82.2280E-03
            2026            2731     115.939E-03     115.005E-03
            2026            2737     84.6396E-03     86.6079E-03
            2026            2738     119.924E-03     119.620E-03
            2027             119     138.113E-03     136.526E-03
            2027             120     133.545E-03     131.768E-03
            2027            2731     115.939E-03     115.005E-03
            2027            2738     119.924E-03     119.620E-03
            2028             494     144.168E-03     144.111E-03
            2028             495     138.113E-03     136.526E-03
            2028            2732     119.924E-03     119.620E-03
            2028            2739     125.225E-03     126.365E-03
            2029            2732     119.924E-03     119.620E-03
            2029            2733     84.6396E-03     86.6079E-03
            2029            2739     125.225E-03     126.365E-03
            2029            2740     86.5255E-03     89.2211E-03
            2030            2733     84.6396E-03     86.6079E-03
            2030            2734     53.2289E-03     56.9100E-03
            2030            2740     86.5255E-03     89.2211E-03
            2030            2741     51.5364E-03     55.4924E-03
            2031            2734     53.2289E-03     56.9100E-03
            2031            2735     38.9134E-03     43.3180E-03
            2031            2741     51.5364E-03     55.4924E-03
            2031            2742     36.3040E-03     41.1608E-03
            2032            2735     38.9134E-03     43.3180E-03
            2032            2736     53.2289E-03     56.9100E-03
            2032            2742     36.3040E-03     41.1608E-03
            2032            2743     51.5364E-03     55.4924E-03
            2033            2736     53.2289E-03     56.9100E-03
            2033            2737     84.6396E-03     86.6079E-03
            2033            2743     51.5364E-03     55.4924E-03
            2033            2744     86.5255E-03     89.2211E-03
            2034            2737     84.6396E-03     86.6079E-03
            2034            2738     119.924E-03     119.620E-03
            2034            2744     86.5255E-03     89.2211E-03
            2034            2745     125.225E-03     126.365E-03
            2035             118     144.168E-03     144.111E-03
            2035             119     138.113E-03     136.526E-03
            2035            2738     119.924E-03     119.620E-03
            2035            2745     125.225E-03     126.365E-03
            2036             493     152.802E-03     147.636E-03
            2036             494     144.168E-03     144.111E-03
            2036            2739     125.225E-03     126.365E-03
            2036            2746     128.709E-03     124.631E-03
            2037            2739     125.225E-03     126.365E-03
            2037            2740     86.5255E-03     89.2211E-03
            2037            2746     128.709E-03     124.631E-03
            2037            2747     83.3920E-03     81.2009E-03
            2038            2740     86.5255E-03     89.2211E-03
            2038            2741     51.5364E-03     55.4924E-03
            2038            2747     83.3920E-03     81.2009E-03
            2038            2748     46.1881E-03     46.8427E-03
            2039            2741     51.5364E-03     55.4924E-03
            2039            2742     36.3040E-03     41.1608E-03
            2039            2748     46.1881E-03     46.8427E-03
            2039            2749     30.2085E-03     32.9091E-03
            2040            2742     36.3040E-03     41.1608E-03
            2040            2743     51.5364E-03     55.4924E-03
            2040            2749     30.2085E-03     32.9091E-03
            2040            2750     46.1881E-03     46.8427E-03
            2041            2743     51.5364E-03     55.4924E-03
            2041            2744     86.5255E-03     89.2211E-03
            2041            2750     46.1881E-03     46.8427E-03
            2041            2751     83.3920E-03     81.2009E-03
            2042            2744     86.5255E-03     89.2211E-03
            2042            2745     125.225E-03     126.365E-03
            2042            2751     83.3920E-03     81.2009E-03
            2042            2752     128.709E-03     124.631E-03
            2043             117     152.802E-03     147.636E-03
            2043             118     144.168E-03     144.111E-03
            2043            2745     125.225E-03     126.365E-03
            2043            2752     128.709E-03     124.631E-03
            2044             492     144.074E-03     130.471E-03
            2044             493     152.802E-03     147.636E-03
            2044            2746     128.709E-03     124.631E-03
            2044            2753     120.725E-03     108.397E-03
            2045            2746     128.709E-03     124.631E-03
            2045            2747     83.3920E-03     81.2009E-03
            2045            2753     120.725E-03     108.397E-03
            2045            2754     80.2004E-03     71.6363E-03
            2046            2747     83.3920E-03     81.2009E-03
            2046            2748     46.1881E-03     46.8427E-03
            2046            2754     80.2004E-03     71.6363E-03
            2046            2755     48.7432E-03     44.8622E-03
            2047            2748     46.1881E-03     46.8427E-03
            2047            2749     30.2085E-03     32.9091E-03
            2047            2755     48.7432E-03     44.8622E-03
            2047            2756     34.4620E-03     32.7746E-03
            2048            2749     30.2085E-03     32.9091E-03
            2048            2750     46.1881E-03     46.8427E-03
            2048            2756     34.4620E-03     32.7746E-03
            2048            2757     48.7432E-03     44.8622E-03
            2049            2750     46.1881E-03     46.8427E-03
            2049            2751     83.3920E-03     81.2009E-03
            2049            2757     48.7432E-03     44.8622E-03
            2049            2758     80.2004E-03     71.6363E-03
            2050            2751     83.3920E-03     81.2009E-03
            2050            2752     128.709E-03     124.631E-03
            2050            2758     80.2004E-03     71.6363E-03
            2050            2759     120.725E-03     108.397E-03
            2051             116     144.074E-03     130.471E-03
            2051             117     152.802E-03     147.636E-03
            2051            2752     128.709E-03     124.631E-03
            2051            2759     120.725E-03     108.397E-03
            2052             491     133.996E-03     129.022E-03
            2052             492     144.074E-03     130.471E-03
            2052            2753     120.725E-03     108.397E-03
            2052            2760     116.670E-03     111.215E-03
            2053            2753     120.725E-03     108.397E-03
            2053            2754     80.2004E-03     71.6363E-03
            2053            2760     116.670E-03     111.215E-03
            2053            2761     82.6807E-03     76.9221E-03
            2054            2754     80.2004E-03     71.6363E-03
            2054            2755     48.7432E-03     44.8622E-03
            2054            2761     82.6807E-03     76.9221E-03
            2054            2762     53.4357E-03     48.2861E-03
            2055            2755     48.7432E-03     44.8622E-03
            2055            2756     34.4620E-03     32.7746E-03
            2055            2762     53.4357E-03     48.2861E-03
            2055            2763     40.8544E-03     36.1364E-03
            2056            2756     34.4620E-03     32.7746E-03
            2056            2757     48.7432E-03     44.8622E-03
            2056            2763     40.8544E-03     36.1364E-03
            2056            2764     53.4357E-03     48.2861E-03
            2057            2757     48.7432E-03     44.8622E-03
            2057            2758     80.2004E-03     71.6363E-03
            2057            2764     53.4357E-03     48.2861E-03
            2057            2765     82.6807E-03     76.9221E-03
            2058            2758     80.2004E-03     71.6363E-03
            2058            2759     120.725E-03     108.397E-03
            2058            2765     82.6807E-03     76.9221E-03
            2058            2766     116.670E-03     111.215E-03
            2059             115     133.996E-03     129.022E-03
            2059             116     144.074E-03     130.471E-03
            2059            2759     120.725E-03     108.397E-03
            2059            2766     116.670E-03     111.215E-03
            2060             490     140.954E-03     142.913E-03
            2060             491     133.996E-03     129.022E-03
            2060            2760     116.670E-03     111.215E-03
            2060            2767     122.881E-03     125.382E-03
            2061            2760     116.670E-03     111.215E-03
            2061            2761     82.6807E-03     76.9221E-03
            2061            2767     122.881E-03     125.382E-03
            2061            2768     86.4136E-03     87.4349E-03
            2062            2761     82.6807E-03     76.9221E-03
            2062            2762     53.4357E-03     48.2861E-03
            2062            2768     86.4136E-03     87.4349E-03
            2062            2769     52.6853E-03     49.7495E-03
            2063            2762     53.4357E-03     48.2861E-03
            2063            2763     40.8544E-03     36.1364E-03
            2063            2769     52.6853E-03     49.7495E-03
            2063            2770     37.3508E-03     32.4810E-03
            2064            2763     40.8544E-03     36.1364E-03
            2064            2764     53.4357E-03     48.2861E-03
            2064            2770     37.3508E-03     32.4810E-03
            2064            2771     52.6853E-03     49.7495E-03
            2065            2764     53.4357E-03     48.2861E-03
            2065            2765     82.6807E-03     76.9221E-03
            2065            2771     52.6853E-03     49.7495E-03
            2065            2772     86.4136E-03     87.4349E-03
            2066            2765     82.6807E-03     76.9221E-03
            2066            2766     116.670E-03     111.215E-03
            2066            2772     86.4136E-03     87.4349E-03
            2066            2773     122.881E-03     125.382E-03
            2067             114     140.954E-03     142.913E-03
            2067             115     133.996E-03     129.022E-03
            2067            2766     116.670E-03     111.215E-03
            2067            2773     122.881E-03     125.382E-03
            2068             489     147.142E-03     146.355E-03
            2068             490     140.954E-03     142.913E-03
            2068            2767     122.881E-03     125.382E-03
            2068            2774     127.387E-03     128.569E-03
            2069            2767     122.881E-03     125.382E-03
            2069            2768     86.4136E-03     87.4349E-03
            2069            2774     127.387E-03     128.569E-03
            2069            2775     88.9252E-03     91.6099E-03
            2070            2768     86.4136E-03     87.4349E-03
            2070            2769     52.6853E-03     49.7495E-03
            2070            2775     88.9252E-03     91.6099E-03
            2070            2776     53.5450E-03     53.2865E-03
            2071            2769     52.6853E-03     49.7495E-03
            2071            2770     37.3508E-03     32.4810E-03
            2071            2776     53.5450E-03     53.2865E-03
            2071            2777     36.8720E-03     34.1354E-03
            2072            2770     37.3508E-03     32.4810E-03
            2072            2771     52.6853E-03     49.7495E-03
            2072            2777     36.8720E-03     34.1354E-03
            2072            2778     53.5450E-03     53.2865E-03
            2073            2771     52.6853E-03     49.7495E-03
            2073            2772     86.4136E-03     87.4349E-03
            2073            2778     53.5450E-03     53.2865E-03
            2073            2779     88.9252E-03     91.6099E-03
            2074            2772     86.4136E-03     87.4349E-03
            2074            2773     122.881E-03     125.382E-03
            2074            2779     88.9252E-03     91.6099E-03
            2074            2780     127.387E-03     128.569E-03
            2075             113     147.142E-03     146.355E-03
            2075             114     140.954E-03     142.913E-03
            2075            2773     122.881E-03     125.382E-03
            2075            2780     127.387E-03     128.569E-03
            2076             488     152.582E-03     151.808E-03
            2076             489     147.142E-03     146.355E-03
            2076            2774     127.387E-03     128.569E-03
            2076            2781     131.874E-03     132.402E-03
            2077            2774     127.387E-03     128.569E-03
            2077            2775     88.9252E-03     91.6099E-03
            2077            2781     131.874E-03     132.402E-03
            2077            2782     91.1528E-03     93.4765E-03
            2078            2775     88.9252E-03     91.6099E-03
            2078            2776     53.5450E-03     53.2865E-03
            2078            2782     91.1528E-03     93.4765E-03
            2078            2783     54.5607E-03     56.4197E-03
            2079            2776     53.5450E-03     53.2865E-03
            2079            2777     36.8720E-03     34.1354E-03
            2079            2783     54.5607E-03     56.4197E-03
            2079            2784     37.9813E-03     38.8818E-03
            2080            2777     36.8720E-03     34.1354E-03
            2080            2778     53.5450E-03     53.2865E-03
            2080            2784     37.9813E-03     38.8818E-03
            2080            2785     54.5607E-03     56.4197E-03
            2081            2778     53.5450E-03     53.2865E-03
            2081            2779     88.9252E-03     91.6099E-03
            2081            2785     54.5607E-03     56.4197E-03
            2081            2786     91.1528E-03     93.4765E-03
            2082            2779     88.9252E-03     91.6099E-03
            2082            2780     127.387E-03     128.569E-03
            2082            2786     91.1528E-03     93.4765E-03
            2082            2787     131.874E-03     132.402E-03
            2083             112     152.582E-03     151.808E-03
            2083             113     147.142E-03     146.355E-03
            2083            2780     127.387E-03     128.569E-03
            2083            2787     131.874E-03     132.402E-03
            2084             487     157.039E-03     155.742E-03
            2084             488     152.582E-03     151.808E-03
            2084            2781     131.874E-03     132.402E-03
            2084            2788     135.641E-03     136.279E-03
            2085            2781     131.874E-03     132.402E-03
            2085            2782     91.1528E-03     93.4765E-03
            2085            2788     135.641E-03     136.279E-03
            2085            2789     93.9004E-03     97.2069E-03
            2086            2782     91.1528E-03     93.4765E-03
            2086            2783     54.5607E-03     56.4197E-03
            2086            2789     93.9004E-03     97.2069E-03
            2086            2790     55.4179E-03     59.3829E-03
            2087            2783     54.5607E-03     56.4197E-03
            2087            2784     37.9813E-03     38.8818E-03
            2087            2790     55.4179E-03     59.3829E-03
            2087            2791     37.2773E-03     41.1668E-03
            2088            2784     37.9813E-03     38.8818E-03
            2088            2785     54.5607E-03     56.4197E-03
            2088            2791     37.2773E-03     41.1668E-03
            2088            2792     55.4179E-03     59.3829E-03
            2089            2785     54.5607E-03     56.4197E-03
            2089            2786     91.1528E-03     93.4765E-03
            2089            2792     55.4179E-03     59.3829E-03
            2089            2793     93.9004E-03     97.2069E-03
            2090            2786     91.1528E-03     93.4765E-03
            2090            2787     131.874E-03     132.402E-03
            2090            2793     93.9004E-03     97.2069E-03
            2090            2794     135.641E-03     136.279E-03
            2091             111     157.039E-03     155.742E-03
            2091             112     152.582E-03     151.808E-03
            2091            2787     131.874E-03     132.402E-03
            2091            2794     135.641E-03     136.279E-03
            2092             486     162.449E-03     162.962E-03
            2092             487     157.039E-03     155.742E-03
            2092            2788     135.641E-03     136.279E-03
            2092            2795     140.487E-03     142.417E-03
            2093            2788     135.641E-03     136.279E-03
            2093            2789     93.9004E-03     97.2069E-03
            2093            2795     140.487E-03     142.417E-03
            2093            2796     95.5211E-03     98.9644E-03
            2094            2789     93.9004E-03     97.2069E-03
            2094            2790     55.4179E-03     59.3829E-03
            2094            2796     95.5211E-03     98.9644E-03
            2094            2797     53.6308E-03     57.8189E-03
            2095            2790     55.4179E-03     59.3829E-03
            2095            2791     37.2773E-03     41.1668E-03
            2095            2797     53.6308E-03     57.8189E-03
            2095            2798     34.7447E-03     39.5810E-03
            2096            2791     37.2773E-03     41.1668E-03
            2096            2792     55.4179E-03     59.3829E-03
            2096            2798     34.7447E-03     39.5810E-03
            2096            2799     53.6308E-03     57.8189E-03
            2097            2792     55.4179E-03     59.3829E-03
            2097            2793     93.9004E-03     97.2069E-03
            2097            2799     53.6308E-03     57.8189E-03
            2097            2800     95.5211E-03     98.9644E-03
            2098            2793     93.9004E-03     97.2069E-03
            2098            2794     135.641E-03     136.279E-03
            2098            2800     95.5211E-03     98.9644E-03
            2098            2801     140.487E-03     142.417E-03
            2099             110     162.449E-03     162.962E-03
            2099             111     157.039E-03     155.742E-03
            2099            2794     135.641E-03     136.279E-03
            2099            2801     140.487E-03     142.417E-03
            2100             485     170.337E-03     164.629E-03
            2100             486     162.449E-03     162.962E-03
            2100            2795     140.487E-03     142.417E-03
            2100            2802     143.256E-03     138.645E-03
            2101            2795     140.487E-03     142.417E-03
            2101            2796     95.5211E-03     98.9644E-03
            2101            2802     143.256E-03     138.645E-03
            2101            2803     91.9927E-03     89.2424E-03
            2102            2796     95.5211E-03     98.9644E-03
            2102            2797     53.6308E-03     57.8189E-03
            2102            2803     91.9927E-03     89.2424E-03
            2102            2804     48.3398E-03     48.5304E-03
            2103            2797     53.6308E-03     57.8189E-03
            2103            2798     34.7447E-03     39.5810E-03
            2103            2804     48.3398E-03     48.5304E-03
            2103            2805     28.8702E-03     31.2365E-03
            2104            2798     34.7447E-03     39.5810E-03
            2104            2799     53.6308E-03     57.8189E-03
            2104            2805     28.8702E-03     31.2365E-03
            2104            2806     48.3398E-03     48.5304E-03
            2105            2799     53.6308E-03     57.8189E-03
            2105            2800     95.5211E-03     98.9644E-03
            2105            2806     48.3398E-03     48.5304E-03
            2105            2807     91.9927E-03     89.2424E-03
            2106            2800     95.5211E-03     98.9644E-03
            2106            2801     140.487E-03     142.417E-03
            2106            2807     91.9927E-03     89.2424E-03
            2106            2808     143.256E-03     138.645E-03
            2107             109     170.337E-03     164.629E-03
            2107             110     162.449E-03     162.962E-03
            2107            2801     140.487E-03     142.417E-03
            2107            2808     143.256E-03     138.645E-03
            2108              25     161.384E-03     153.925E-03
            2108             484     136.997E-03     130.459E-03
            2108             485     170.337E-03     164.629E-03
            2108            2802     143.256E-03     138.645E-03
            2109             483     91.3991E-03     87.0763E-03
            2109             484     136.997E-03     130.459E-03
            2109            2802     143.256E-03     138.645E-03
            2109            2803     91.9927E-03     89.2424E-03
            2110             482     52.2692E-03     50.6776E-03
            2110             483     91.3991E-03     87.0763E-03
            2110            2803     91.9927E-03     89.2424E-03
            2110            2804     48.3398E-03     48.5304E-03
            2111             481     34.3493E-03     34.1969E-03
            2111             482     52.2692E-03     50.6776E-03
            2111            2804     48.3398E-03     48.5304E-03
            2111            2805     28.8702E-03     31.2365E-03
            2112             480     52.2692E-03     50.6776E-03
            2112             481     34.3493E-03     34.1969E-03
            2112            2805     28.8702E-03     31.2365E-03
            2112            2806     48.3398E-03     48.5304E-03
            2113             479     91.3991E-03     87.0763E-03
            2113             480     52.2692E-03     50.6776E-03
            2113            2806     48.3398E-03     48.5304E-03
            2113            2807     91.9927E-03     89.2424E-03
            2114             478     136.997E-03     130.459E-03
            2114             479     91.3991E-03     87.0763E-03
            2114            2807     91.9927E-03     89.2424E-03
            2114            2808     143.256E-03     138.645E-03
            2115               6     161.384E-03     153.925E-03
            2115             109     170.337E-03     164.629E-03
            2115             478     136.997E-03     130.459E-03
            2115            2808     143.256E-03     138.645E-03
            2116               3     15.8411E-03     16.0190E-03
            2116              50     1.22900E-03     1.21966E-03
            2116             477     17.2472E-03     17.2827E-03
            2116            2809     1.38493E-03     1.39178E-03
            2117             476     19.1155E-03     18.9830E-03
            2117             477     17.2472E-03     17.2827E-03
            2117            2809     1.38493E-03     1.39178E-03
            2117            2810     1.51627E-03     1.53567E-03
            2118             475     20.0384E-03     19.8816E-03
            2118             476     19.1155E-03     18.9830E-03
            2118            2810     1.51627E-03     1.53567E-03
            2118            2811     1.48393E-03     1.50075E-03
            2119             474     20.4989E-03     20.3437E-03
            2119             475     20.0384E-03     19.8816E-03
            2119            2811     1.48393E-03     1.50075E-03
            2119            2812     1.47620E-03     1.49406E-03
            2120             473     20.0384E-03     19.8816E-03
            2120             474     20.4989E-03     20.3437E-03
            2120            2812     1.47620E-03     1.49406E-03
            2120            2813     1.48393E-03     1.50075E-03
            2121             472     19.1155E-03     18.9830E-03
            2121             473     20.0384E-03     19.8816E-03
            2121            2813     1.48393E-03     1.50075E-03
            2121            2814     1.51627E-03     1.53567E-03
            2122             471     17.2472E-03     17.2827E-03
            2122             472     19.1155E-03     18.9830E-03
            2122            2814     1.51627E-03     1.53567E-03
            2122            2815     1.38493E-03     1.39178E-03
            2123              23     15.8411E-03     16.0190E-03
            2123             456     1.22900E-03     1.21966E-03
            2123             471     17.2472E-03     17.2827E-03
            2123            2815     1.38493E-03     1.39178E-03
            2124              50     1.22900E-03     1.21966E-03
            2124              51     1.11508E-03     1.11909E-03
            2124            2809     1.38493E-03     1.39178E-03
            2124            2816     1.32472E-03     1.33722E-03
            2125            2809     1.38493E-03     1.39178E-03
            2125            2810     1.51627E-03     1.53567E-03
            2125            2816     1.32472E-03     1.33722E-03
            2125            2817     1.52186E-03     1.54137E-03
            2126            2810     1.51627E-03     1.53567E-03
            2126            2811     1.48393E-03     1.50075E-03
            2126            2817     1.52186E-03     1.54137E-03
            2126            2818     1.50384E-03     1.52214E-03
            2127            2811     1.48393E-03     1.50075E-03
            2127            2812     1.47620E-03     1.49406E-03
            2127            2818     1.50384E-03     1.52214E-03
            2127            2819     1.49832E-03     1.51688E-03
            2128            2812     1.47620E-03     1.49406E-03
            2128            2813     1.48393E-03     1.50075E-03
            2128            2819     1.49832E-03     1.51688E-03
            2128            2820     1.50384E-03     1.52214E-03
            2129            2813     1.48393E-03     1.50075E-03
            2129            2814     1.51627E-03     1.53567E-03
            2129            2820     1.50384E-03     1.52214E-03
            2129            2821     1.52186E-03     1.54137E-03
            2130            2814     1.51627E-03     1.53567E-03
            2130            2815     1.38493E-03     1.39178E-03
            2130            2821     1.52186E-03     1.54137E-03
            2130            2822     1.32472E-03     1.33722E-03
            2131             456     1.22900E-03     1.21966E-03
            2131             457     1.11508E-03     1.11909E-03
            2131            2815     1.38493E-03     1.39178E-03
            2131            2822     1.32472E-03     1.33722E-03
            2132               4     1.09082E-03     1.09577E-03
            2132              51     1.11508E-03     1.11909E-03
            2132             538     1.27865E-03     1.28572E-03
            2132            2816     1.32472E-03     1.33722E-03
            2133             537     1.49600E-03     1.50777E-03
            2133             538     1.27865E-03     1.28572E-03
            2133            2816     1.32472E-03     1.33722E-03
            2133            2817     1.52186E-03     1.54137E-03
            2134             536     1.51859E-03     1.53228E-03
            2134             537     1.49600E-03     1.50777E-03
            2134            2817     1.52186E-03     1.54137E-03
            2134            2818     1.50384E-03     1.52214E-03
            2135             535     1.51167E-03     1.52469E-03
            2135             536     1.51859E-03     1.53228E-03
            2135            2818     1.50384E-03     1.52214E-03
            2135            2819     1.49832E-03     1.51688E-03
            2136             534     1.51859E-03     1.53228E-03
            2136             535     1.51167E-03     1.52469E-03
            2136            2819     1.49832E-03     1.51688E-03
            2136            2820     1.50384E-03     1.52214E-03
            2137             533     1.49600E-03     1.50777E-03
            2137             534     1.51859E-03     1.53228E-03
            2137            2820     1.50384E-03     1.52214E-03
            2137            2821     1.52186E-03     1.54137E-03
            2138             532     1.27865E-03     1.28572E-03
            2138             533     1.49600E-03     1.50777E-03
            2138            2821     1.52186E-03     1.54137E-03
            2138            2822     1.32472E-03     1.33722E-03
            2139              24     1.09082E-03     1.09577E-03
            2139             457     1.11508E-03     1.11909E-03
            2139             532     1.27865E-03     1.28572E-03
            2139            2822     1.32472E-03     1.33722E-03
            3835              27     189.870E-03     176.754E-03
            3835             723     155.096E-03     144.082E-03
            3835             742     187.922E-03     182.495E-03
            3835            4247     157.994E-03     154.312E-03
            3836             723     155.096E-03     144.082E-03
            3836             724     95.9126E-03     89.3045E-03
            3836            4247     157.994E-03     154.312E-03
            3836            4248     101.941E-03     100.570E-03
            3837             724     95.9126E-03     89.3045E-03
            3837             725     49.1316E-03     46.9331E-03
            3837            4248     101.941E-03     100.570E-03
            3837            4249     56.0409E-03     56.7961E-03
            3838             725     49.1316E-03     46.9331E-03
            3838             726     26.7590E-03     26.6673E-03
            3838            4249     56.0409E-03     56.7961E-03
            3838            4250     36.2652E-03     38.5802E-03
            3839             726     26.7590E-03     26.6673E-03
            3839             727     49.1316E-03     46.9331E-03
            3839            4250     36.2652E-03     38.5802E-03
            3839            4251     56.0409E-03     56.7961E-03
            3840             727     49.1316E-03     46.9331E-03
            3840             728     95.9126E-03     89.3045E-03
            3840            4251     56.0409E-03     56.7961E-03
            3840            4252     101.941E-03     100.570E-03
            3841             728     95.9126E-03     89.3045E-03
            3841             729     155.096E-03     144.082E-03
            3841            4252     101.941E-03     100.570E-03
            3841            4253     157.994E-03     154.312E-03
            3842               8     189.870E-03     176.754E-03
            3842             189     187.922E-03     182.495E-03
            3842             729     155.096E-03     144.082E-03
            3842            4253     157.994E-03     154.312E-03
            3843             741     177.124E-03     178.658E-03
            3843             742     187.922E-03     182.495E-03
            3843            4247     157.994E-03     154.312E-03
            3843            4254     153.739E-03     157.184E-03
            3844            4247     157.994E-03     154.312E-03
            3844            4248     101.941E-03     100.570E-03
            3844            4254     153.739E-03     157.184E-03
            3844            4255     106.114E-03     111.365E-03
            3845            4248     101.941E-03     100.570E-03
            3845            4249     56.0409E-03     56.7961E-03
            3845            4255     106.114E-03     111.365E-03
            3845            4256     62.8532E-03     67.1266E-03
            3846            4249     56.0409E-03     56.7961E-03
            3846            4250     36.2652E-03     38.5802E-03
            3846            4256     62.8532E-03     67.1266E-03
            3846            4257     43.8328E-03     47.2332E-03
            3847            4250     36.2652E-03     38.5802E-03
            3847            4251     56.0409E-03     56.7961E-03
            3847            4257     43.8328E-03     47.2332E-03
            3847            4258     62.8532E-03     67.1266E-03
            3848            4251     56.0409E-03     56.7961E-03
            3848            4252     101.941E-03     100.570E-03
            3848            4258     62.8532E-03     67.1266E-03
            3848            4259     106.114E-03     111.365E-03
            3849            4252     101.941E-03     100.570E-03
            3849            4253     157.994E-03     154.312E-03
            3849            4259     106.114E-03     111.365E-03
            3849            4260     153.739E-03     157.184E-03
            3850             188     177.124E-03     178.658E-03
            3850             189     187.922E-03     182.495E-03
            3850            4253     157.994E-03     154.312E-03
            3850            4260     153.739E-03     157.184E-03
            3851             740     168.440E-03     168.534E-03
            3851             741     177.124E-03     178.658E-03
            3851            4254     153.739E-03     157.184E-03
            3851            4261     146.611E-03     149.555E-03
            3852            4254     153.739E-03     157.184E-03
            3852            4255     106.114E-03     111.365E-03
            3852            4261     146.611E-03     149.555E-03
            3852            4262     104.334E-03     109.990E-03
            3853            4255     106.114E-03     111.365E-03
            3853            4256     62.8532E-03     67.1266E-03
            3853            4262     104.334E-03     109.990E-03
            3853            4263     65.4377E-03     68.5983E-03
            3854            4256     62.8532E-03     67.1266E-03
            3854            4257     43.8328E-03     47.2332E-03
            3854            4263     65.4377E-03     68.5983E-03
            3854            4264     46.9876E-03     47.7943E-03
            3855            4257     43.8328E-03     47.2332E-03
            3855            4258     62.8532E-03     67.1266E-03
            3855            4264     46.9876E-03     47.7943E-03
            3855            4265     65.4377E-03     68.5983E-03
            3856            4258     62.8532E-03     67.1266E-03
            3856            4259     106.114E-03     111.365E-03
            3856            4265     65.4377E-03     68.5983E-03
            3856            4266     104.334E-03     109.990E-03
            3857            4259     106.114E-03     111.365E-03
            3857            4260     153.739E-03     157.184E-03
            3857            4266     104.334E-03     109.990E-03
            3857            4267     146.611E-03     149.555E-03
            3858             187     168.440E-03     168.534E-03
            3858             188     177.124E-03     178.658E-03
            3858            4260     153.739E-03     157.184E-03
            3858            4267     146.611E-03     149.555E-03
            3859             739     160.780E-03     163.604E-03
            3859             740     168.440E-03     168.534E-03
            3859            4261     146.611E-03     149.555E-03
            3859            4268     140.971E-03     144.733E-03
            3860            4261     146.611E-03     149.555E-03
            3860            4262     104.334E-03     109.990E-03
            3860            4268     140.971E-03     144.733E-03
            3860            4269     100.990E-03     103.608E-03
            3861            4262     104.334E-03     109.990E-03
            3861            4263     65.4377E-03     68.5983E-03
            3861            4269     100.990E-03     103.608E-03
            3861            4270     64.8726E-03     63.8172E-03
            3862            4263     65.4377E-03     68.5983E-03
            3862            4264     46.9876E-03     47.7943E-03
            3862            4270     64.8726E-03     63.8172E-03
            3862            4271     48.9274E-03     46.2814E-03
            3863            4264     46.9876E-03     47.7943E-03
            3863            4265     65.4377E-03     68.5983E-03
            3863            4271     48.9274E-03     46.2814E-03
            3863            4272     64.8726E-03     63.8172E-03
            3864            4265     65.4377E-03     68.5983E-03
            3864            4266     104.334E-03     109.990E-03
            3864            4272     64.8726E-03     63.8172E-03
            3864            4273     100.990E-03     103.608E-03
            3865            4266     104.334E-03     109.990E-03
            3865            4267     146.611E-03     149.555E-03
            3865            4273     100.990E-03     103.608E-03
            3865            4274     140.971E-03     144.733E-03
            3866             186     160.780E-03     163.604E-03
            3866             187     168.440E-03     168.534E-03
            3866            4267     146.611E-03     149.555E-03
            3866            4274     140.971E-03     144.733E-03
            3867             738     150.403E-03     145.952E-03
            3867             739     160.780E-03     163.604E-03
            3867            4268     140.971E-03     144.733E-03
            3867            4275     132.177E-03     127.405E-03
            3868            4268     140.971E-03     144.733E-03
            3868            4269     100.990E-03     103.608E-03
            3868            4275     132.177E-03     127.405E-03
            3868            4276     96.3613E-03     91.4597E-03
            3869            4269     100.990E-03     103.608E-03
            3869            4270     64.8726E-03     63.8172E-03
            3869            4276     96.3613E-03     91.4597E-03
            3869            4277     65.7713E-03     61.4917E-03
            3870            4270     64.8726E-03     63.8172E-03
            3870            4271     48.9274E-03     46.2814E-03
            3870            4277     65.7713E-03     61.4917E-03
            3870            4278     52.7703E-03     48.9229E-03
            3871            4271     48.9274E-03     46.2814E-03
            3871            4272     64.8726E-03     63.8172E-03
            3871            4278     52.7703E-03     48.9229E-03
            3871            4279     65.7713E-03     61.4917E-03
            3872            4272     64.8726E-03     63.8172E-03
            3872            4273     100.990E-03     103.608E-03
            3872            4279     65.7713E-03     61.4917E-03
            3872            4280     96.3613E-03     91.4597E-03
            3873            4273     100.990E-03     103.608E-03
            3873            4274     140.971E-03     144.733E-03
            3873            4280     96.3613E-03     91.4597E-03
            3873            4281     132.177E-03     127.405E-03
            3874             185     150.403E-03     145.952E-03
            3874             186     160.780E-03     163.604E-03
            3874            4274     140.971E-03     144.733E-03
            3874            4281     132.177E-03     127.405E-03
            3875             737     143.822E-03     136.513E-03
            3875             738     150.403E-03     145.952E-03
            3875            4275     132.177E-03     127.405E-03
            3875            4282     124.815E-03     117.887E-03
            3876            4275     132.177E-03     127.405E-03
            3876            4276     96.3613E-03     91.4597E-03
            3876            4282     124.815E-03     117.887E-03
            3876            4283     88.5851E-03     83.6157E-03
            3877            4276     96.3613E-03     91.4597E-03
            3877            4277     65.7713E-03     61.4917E-03
            3877            4283     88.5851E-03     83.6157E-03
            3877            4284     57.0082E-03     54.4307E-03
            3878            4277     65.7713E-03     61.4917E-03
            3878            4278     52.7703E-03     48.9229E-03
            3878            4284     57.0082E-03     54.4307E-03
            3878            4285     42.6552E-03     40.8897E-03
            3879            4278     52.7703E-03     48.9229E-03
            3879            4279     65.7713E-03     61.4917E-03
            3879            4285     42.6552E-03     40.8897E-03
            3879            4286     57.0082E-03     54.4307E-03
            3880            4279     65.7713E-03     61.4917E-03
            3880            4280     96.3613E-03     91.4597E-03
            3880            4286     57.0082E-03     54.4307E-03
            3880            4287     88.5851E-03     83.6157E-03
            3881            4280     96.3613E-03     91.4597E-03
            3881            4281     132.177E-03     127.405E-03
            3881            4287     88.5851E-03     83.6157E-03
            3881            4288     124.815E-03     117.887E-03
            3882             184     143.822E-03     136.513E-03
            3882             185     150.403E-03     145.952E-03
            3882            4281     132.177E-03     127.405E-03
            3882            4288     124.815E-03     117.887E-03
            3883              34     159.247E-03     152.684E-03
            3883             736     133.213E-03     127.686E-03
            3883             737     143.822E-03     136.513E-03
            3883            4282     124.815E-03     117.887E-03
            3884             735     86.5995E-03     83.2130E-03
            3884             736     133.213E-03     127.686E-03
            3884            4282     124.815E-03     117.887E-03
            3884            4283     88.5851E-03     83.6157E-03
            3885             734     48.5828E-03     47.7143E-03
            3885             735     86.5995E-03     83.2130E-03
            3885            4283     88.5851E-03     83.6157E-03
            3885            4284     57.0082E-03     54.4307E-03
            3886             733     31.1462E-03     31.6906E-03
            3886             734     48.5828E-03     47.7143E-03
            3886            4284     57.0082E-03     54.4307E-03
            3886            4285     42.6552E-03     40.8897E-03
            3887             732     48.5828E-03     47.7143E-03
            3887             733     31.1462E-03     31.6906E-03
            3887            4285     42.6552E-03     40.8897E-03
            3887            4286     57.0082E-03     54.4307E-03
            3888             731     86.5995E-03     83.2130E-03
            3888             732     48.5828E-03     47.7143E-03
            3888            4286     57.0082E-03     54.4307E-03
            3888            4287     88.5851E-03     83.6157E-03
            3889             730     133.213E-03     127.686E-03
            3889             731     86.5995E-03     83.2130E-03
            3889            4287     88.5851E-03     83.6157E-03
            3889            4288     124.815E-03     117.887E-03
            3890              10     159.247E-03     152.684E-03
            3890             184     143.822E-03     136.513E-03
            3890             730     133.213E-03     127.686E-03
            3890            4288     124.815E-03     117.887E-03
            3891              25     161.384E-03     153.925E-03
            3891             484     136.997E-03     130.459E-03
            3891             547     155.217E-03     154.978E-03
            3891            4289     133.440E-03     133.273E-03
            3892             483     91.3991E-03     87.0763E-03
            3892             484     136.997E-03     130.459E-03
            3892            4289     133.440E-03     133.273E-03
            3892            4290     91.1688E-03     91.1342E-03
            3893             482     52.2692E-03     50.6776E-03
            3893             483     91.3991E-03     87.0763E-03
            3893            4290     91.1688E-03     91.1342E-03
            3893            4291     52.7349E-03     52.6967E-03
            3894             481     34.3493E-03     34.1969E-03
            3894             482     52.2692E-03     50.6776E-03
            3894            4291     52.7349E-03     52.6967E-03
            3894            4292     34.7946E-03     34.6933E-03
            3895             480     52.2692E-03     50.6776E-03
            3895             481     34.3493E-03     34.1969E-03
            3895            4292     34.7946E-03     34.6933E-03
            3895            4293     52.7349E-03     52.6967E-03
            3896             479     91.3991E-03     87.0763E-03
            3896             480     52.2692E-03     50.6776E-03
            3896            4293     52.7349E-03     52.6967E-03
            3896            4294     91.1688E-03     91.1342E-03
            3897             478     136.997E-03     130.459E-03
            3897             479     91.3991E-03     87.0763E-03
            3897            4294     91.1688E-03     91.1342E-03
            3897            4295     133.440E-03     133.273E-03
            3898               6     161.384E-03     153.925E-03
            3898             172     155.217E-03     154.978E-03
            3898             478     136.997E-03     130.459E-03
            3898            4295     133.440E-03     133.273E-03
            3899             547     155.217E-03     154.978E-03
            3899             548     160.542E-03     153.893E-03
            3899            4289     133.440E-03     133.273E-03
            3899            4296     135.548E-03     129.550E-03
            3900            4289     133.440E-03     133.273E-03
            3900            4290     91.1688E-03     91.1342E-03
            3900            4296     135.548E-03     129.550E-03
            3900            4297     90.8486E-03     86.9334E-03
            3901            4290     91.1688E-03     91.1342E-03
            3901            4291     52.7349E-03     52.6967E-03
            3901            4297     90.8486E-03     86.9334E-03
            3901            4298     53.3006E-03     51.4262E-03
            3902            4291     52.7349E-03     52.6967E-03
            3902            4292     34.7946E-03     34.6933E-03
            3902            4298     53.3006E-03     51.4262E-03
            3902            4299     35.4577E-03     34.1919E-03
            3903            4292     34.7946E-03     34.6933E-03
            3903            4293     52.7349E-03     52.6967E-03
            3903            4299     35.4577E-03     34.1919E-03
            3903            4300     53.3006E-03     51.4262E-03
            3904            4293     52.7349E-03     52.6967E-03
            3904            4294     91.1688E-03     91.1342E-03
            3904            4300     53.3006E-03     51.4262E-03
            3904            4301     90.8486E-03     86.9334E-03
            3905            4294     91.1688E-03     91.1342E-03
            3905            4295     133.440E-03     133.273E-03
            3905            4301     90.8486E-03     86.9334E-03
            3905            4302     135.548E-03     129.550E-03
            3906             171     160.542E-03     153.893E-03
            3906             172     155.217E-03     154.978E-03
            3906            4295     133.440E-03     133.273E-03
            3906            4302     135.548E-03     129.550E-03
            3907             548     160.542E-03     153.893E-03
            3907             549     162.493E-03     158.773E-03
            3907            4296     135.548E-03     129.550E-03
            3907            4303     140.252E-03     136.708E-03
            3908            4296     135.548E-03     129.550E-03
            3908            4297     90.8486E-03     86.9334E-03
            3908            4303     140.252E-03     136.708E-03
            3908            4304     96.9990E-03     93.8731E-03
            3909            4297     90.8486E-03     86.9334E-03
            3909            4298     53.3006E-03     51.4262E-03
            3909            4304     96.9990E-03     93.8731E-03
            3909            4305     59.4329E-03     57.1256E-03
            3910            4298     53.3006E-03     51.4262E-03
            3910            4299     35.4577E-03     34.1919E-03
            3910            4305     59.4329E-03     57.1256E-03
            3910            4306     42.8785E-03     41.1491E-03
            3911            4299     35.4577E-03     34.1919E-03
            3911            4300     53.3006E-03     51.4262E-03
            3911            4306     42.8785E-03     41.1491E-03
            3911            4307     59.4329E-03     57.1256E-03
            3912            4300     53.3006E-03     51.4262E-03
            3912            4301     90.8486E-03     86.9334E-03
            3912            4307     59.4329E-03     57.1256E-03
            3912            4308     96.9990E-03     93.8731E-03
            3913            4301     90.8486E-03     86.9334E-03
            3913            4302     135.548E-03     129.550E-03
            3913            4308     96.9990E-03     93.8731E-03
            3913            4309     140.252E-03     136.708E-03
            3914             170     162.493E-03     158.773E-03
            3914             171     160.542E-03     153.893E-03
            3914            4302     135.548E-03     129.550E-03
            3914            4309     140.252E-03     136.708E-03
            3915             549     162.493E-03     158.773E-03
            3915             550     168.878E-03     171.870E-03
            3915            4303     140.252E-03     136.708E-03
            3915            4310     146.949E-03     151.743E-03
            3916            4303     140.252E-03     136.708E-03
            3916            4304     96.9990E-03     93.8731E-03
            3916            4310     146.949E-03     151.743E-03
            3916            4311     102.200E-03     107.129E-03
            3917            4304     96.9990E-03     93.8731E-03
            3917            4305     59.4329E-03     57.1256E-03
            3917            4311     102.200E-03     107.129E-03
            3917            4312     58.2954E-03     59.7554E-03
            3918            4305     59.4329E-03     57.1256E-03
            3918            4306     42.8785E-03     41.1491E-03
            3918            4312     58.2954E-03     59.7554E-03
            3918            4313     37.2122E-03     36.8680E-03
            3919            4306     42.8785E-03     41.1491E-03
            3919            4307     59.4329E-03     57.1256E-03
            3919            4313     37.2122E-03     36.8680E-03
            3919            4314     58.2954E-03     59.7554E-03
            3920            4307     59.4329E-03     57.1256E-03
            3920            4308     96.9990E-03     93.8731E-03
            3920            4314     58.2954E-03     59.7554E-03
            3920            4315     102.200E-03     107.129E-03
            3921            4308     96.9990E-03     93.8731E-03
            3921            4309     140.252E-03     136.708E-03
            3921            4315     102.200E-03     107.129E-03
            3921            4316     146.949E-03     151.743E-03
            3922             169     168.878E-03     171.870E-03
            3922             170     162.493E-03     158.773E-03
            3922            4309     140.252E-03     136.708E-03
            3922            4316     146.949E-03     151.743E-03
            3923             550     168.878E-03     171.870E-03
            3923             551     175.146E-03     177.337E-03
            3923            4310     146.949E-03     151.743E-03
            3923            4317     151.677E-03     156.476E-03
            3924            4310     146.949E-03     151.743E-03
            3924            4311     102.200E-03     107.129E-03
            3924            4317     151.677E-03     156.476E-03
            3924            4318     103.393E-03     109.702E-03
            3925            4311     102.200E-03     107.129E-03
            3925            4312     58.2954E-03     59.7554E-03
            3925            4318     103.393E-03     109.702E-03
            3925            4319     56.0586E-03     59.3110E-03
            3926            4312     58.2954E-03     59.7554E-03
            3926            4313     37.2122E-03     36.8680E-03
            3926            4319     56.0586E-03     59.3110E-03
            3926            4320     33.5396E-03     34.8325E-03
            3927            4313     37.2122E-03     36.8680E-03
            3927            4314     58.2954E-03     59.7554E-03
            3927            4320     33.5396E-03     34.8325E-03
            3927            4321     56.0586E-03     59.3110E-03
            3928            4314     58.2954E-03     59.7554E-03
            3928            4315     102.200E-03     107.129E-03
            3928            4321     56.0586E-03     59.3110E-03
            3928            4322     103.393E-03     109.702E-03
            3929            4315     102.200E-03     107.129E-03
            3929            4316     146.949E-03     151.743E-03
            3929            4322     103.393E-03     109.702E-03
            3929            4323     151.677E-03     156.476E-03
            3930             168     175.146E-03     177.337E-03
            3930             169     168.878E-03     171.870E-03
            3930            4316     146.949E-03     151.743E-03
            3930            4323     151.677E-03     156.476E-03
            3931             551     175.146E-03     177.337E-03
            3931             552     182.574E-03     178.677E-03
            3931            4317     151.677E-03     156.476E-03
            3931            4324     153.474E-03     150.976E-03
            3932            4317     151.677E-03     156.476E-03
            3932            4318     103.393E-03     109.702E-03
            3932            4324     153.474E-03     150.976E-03
            3932            4325     98.3866E-03     97.6976E-03
            3933            4318     103.393E-03     109.702E-03
            3933            4319     56.0586E-03     59.3110E-03
            3933            4325     98.3866E-03     97.6976E-03
            3933            4326     50.1154E-03     50.4091E-03
            3934            4319     56.0586E-03     59.3110E-03
            3934            4320     33.5396E-03     34.8325E-03
            3934            4326     50.1154E-03     50.4091E-03
            3934            4327     27.8308E-03     28.6982E-03
            3935            4320     33.5396E-03     34.8325E-03
            3935            4321     56.0586E-03     59.3110E-03
            3935            4327     27.8308E-03     28.6982E-03
            3935            4328     50.1154E-03     50.4091E-03
            3936            4321     56.0586E-03     59.3110E-03
            3936            4322     103.393E-03     109.702E-03
            3936            4328     50.1154E-03     50.4091E-03
            3936            4329     98.3866E-03     97.6976E-03
            3937            4322     103.393E-03     109.702E-03
            3937            4323     151.677E-03     156.476E-03
            3937            4329     98.3866E-03     97.6976E-03
            3937            4330     153.474E-03     150.976E-03
            3938             167     182.574E-03     178.677E-03
            3938             168     175.146E-03     177.337E-03
            3938            4323     151.677E-03     156.476E-03
            3938            4330     153.474E-03     150.976E-03
            3939              27     189.870E-03     176.754E-03
            3939             552     182.574E-03     178.677E-03
            3939             723     155.096E-03     144.082E-03
            3939            4324     153.474E-03     150.976E-03
            3940             723     155.096E-03     144.082E-03
            3940             724     95.9126E-03     89.3045E-03
            3940            4324     153.474E-03     150.976E-03
            3940            4325     98.3866E-03     97.6976E-03
            3941             724     95.9126E-03     89.3045E-03
            3941             725     49.1316E-03     46.9331E-03
            3941            4325     98.3866E-03     97.6976E-03
            3941            4326     50.1154E-03     50.4091E-03
            3942             725     49.1316E-03     46.9331E-03
            3942             726     26.7590E-03     26.6673E-03
            3942            4326     50.1154E-03     50.4091E-03
            3942            4327     27.8308E-03     28.6982E-03
            3943             726     26.7590E-03     26.6673E-03
            3943             727     49.1316E-03     46.9331E-03
            3943            4327     27.8308E-03     28.6982E-03
            3943            4328     50.1154E-03     50.4091E-03
            3944             727     49.1316E-03     46.9331E-03
            3944             728     95.9126E-03     89.3045E-03
            3944            4328     50.1154E-03     50.4091E-03
            3944            4329     98.3866E-03     97.6976E-03
            3945             728     95.9126E-03     89.3045E-03
            3945             729     155.096E-03     144.082E-03
            3945            4329     98.3866E-03     97.6976E-03
            3945            4330     153.474E-03     150.976E-03
            3946               8     189.870E-03     176.754E-03
            3946             167     182.574E-03     178.677E-03
            3946             729     155.096E-03     144.082E-03
            3946            4330     153.474E-03     150.976E-03
            5375              13     19.0542E-03     18.9080E-03
            5375             201     1.76504E-03     1.73061E-03
            5375             956     21.3711E-03     21.2970E-03
            5375            5519     1.69745E-03     1.68925E-03
            5376             956     21.3711E-03     21.2970E-03
            5376             957     24.1970E-03     24.1470E-03
            5376            5519     1.69745E-03     1.68925E-03
            5376            5520     1.57881E-03     1.59935E-03
            5377             957     24.1970E-03     24.1470E-03
            5377             958     25.2727E-03     25.2254E-03
            5377            5520     1.57881E-03     1.59935E-03
            5377            5521     1.53179E-03     1.55660E-03
            5378             958     25.2727E-03     25.2254E-03
            5378             959     25.8393E-03     25.8429E-03
            5378            5521     1.53179E-03     1.55660E-03
            5378            5522     1.53583E-03     1.56238E-03
            5379             959     25.8393E-03     25.8429E-03
            5379             960     25.2727E-03     25.2254E-03
            5379            5522     1.53583E-03     1.56238E-03
            5379            5523     1.53179E-03     1.55660E-03
            5380             960     25.2727E-03     25.2254E-03
            5380             961     24.1970E-03     24.1470E-03
            5380            5523     1.53179E-03     1.55660E-03
            5380            5524     1.57881E-03     1.59935E-03
            5381             961     24.1970E-03     24.1470E-03
            5381             962     21.3711E-03     21.2970E-03
            5381            5524     1.57881E-03     1.59935E-03
            5381            5525     1.69745E-03     1.68925E-03
            5382              15     19.0542E-03     18.9080E-03
            5382             949     1.76504E-03     1.73061E-03
            5382             962     21.3711E-03     21.2970E-03
            5382            5525     1.69745E-03     1.68925E-03
            5383             201     1.76504E-03     1.73061E-03
            5383             202     1.38798E-03     1.39548E-03
            5383            5519     1.69745E-03     1.68925E-03
            5383            5526     1.47975E-03     1.49397E-03
            5384            5519     1.69745E-03     1.68925E-03
            5384            5520     1.57881E-03     1.59935E-03
            5384            5526     1.47975E-03     1.49397E-03
            5384            5527     1.59815E-03     1.62910E-03
            5385            5520     1.57881E-03     1.59935E-03
            5385            5521     1.53179E-03     1.55660E-03
            5385            5527     1.59815E-03     1.62910E-03
            5385            5528     1.63306E-03     1.67185E-03
            5386            5521     1.53179E-03     1.55660E-03
            5386            5522     1.53583E-03     1.56238E-03
            5386            5528     1.63306E-03     1.67185E-03
            5386            5529     1.64134E-03     1.67796E-03
            5387            5522     1.53583E-03     1.56238E-03
            5387            5523     1.53179E-03     1.55660E-03
            5387            5529     1.64134E-03     1.67796E-03
            5387            5530     1.63306E-03     1.67185E-03
            5388            5523     1.53179E-03     1.55660E-03
            5388            5524     1.57881E-03     1.59935E-03
            5388            5530     1.63306E-03     1.67185E-03
            5388            5531     1.59815E-03     1.62910E-03
            5389            5524     1.57881E-03     1.59935E-03
            5389            5525     1.69745E-03     1.68925E-03
            5389            5531     1.59815E-03     1.62910E-03
            5389            5532     1.47975E-03     1.49397E-03
            5390             949     1.76504E-03     1.73061E-03
            5390             950     1.38798E-03     1.39548E-03
            5390            5525     1.69745E-03     1.68925E-03
            5390            5532     1.47975E-03     1.49397E-03
            5391             202     1.38798E-03     1.39548E-03
            5391             203     1.15684E-03     1.16209E-03
            5391            5526     1.47975E-03     1.49397E-03
            5391            5533     1.30101E-03     1.31137E-03
            5392            5526     1.47975E-03     1.49397E-03
            5392            5527     1.59815E-03     1.62910E-03
            5392            5533     1.30101E-03     1.31137E-03
            5392            5534     1.54514E-03     1.56591E-03
            5393            5527     1.59815E-03     1.62910E-03
            5393            5528     1.63306E-03     1.67185E-03
            5393            5534     1.54514E-03     1.56591E-03
            5393            5535     1.67728E-03     1.70607E-03
            5394            5528     1.63306E-03     1.67185E-03
            5394            5529     1.64134E-03     1.67796E-03
            5394            5535     1.67728E-03     1.70607E-03
            5394            5536     1.70946E-03     1.74096E-03
            5395            5529     1.64134E-03     1.67796E-03
            5395            5530     1.63306E-03     1.67185E-03
            5395            5536     1.70946E-03     1.74096E-03
            5395            5537     1.67728E-03     1.70607E-03
            5396            5530     1.63306E-03     1.67185E-03
            5396            5531     1.59815E-03     1.62910E-03
            5396            5537     1.67728E-03     1.70607E-03
            5396            5538     1.54514E-03     1.56591E-03
            5397            5531     1.59815E-03     1.62910E-03
            5397            5532     1.47975E-03     1.49397E-03
            5397            5538     1.54514E-03     1.56591E-03
            5397            5539     1.30101E-03     1.31137E-03
            5398             950     1.38798E-03     1.39548E-03
            5398             951     1.15684E-03     1.16209E-03
            5398            5532     1.47975E-03     1.49397E-03
            5398            5539     1.30101E-03     1.31137E-03
            5399             203     1.15684E-03     1.16209E-03
            5399             204     1.01016E-03     1.02909E-03
            5399            5533     1.30101E-03     1.31137E-03
            5399            5540     1.20351E-03     1.22231E-03
            5400            5533     1.30101E-03     1.31137E-03
            5400            5534     1.54514E-03     1.56591E-03
            5400            5540     1.20351E-03     1.22231E-03
            5400            5541     1.51361E-03     1.52866E-03
            5401            5534     1.54514E-03     1.56591E-03
            5401            5535     1.67728E-03     1.70607E-03
            5401            5541     1.51361E-03     1.52866E-03
            5401            5542     1.67142E-03     1.68502E-03
            5402            5535     1.67728E-03     1.70607E-03
            5402            5536     1.70946E-03     1.74096E-03
            5402            5542     1.67142E-03     1.68502E-03
            5402            5543     1.71247E-03     1.72824E-03
            5403            5536     1.70946E-03     1.74096E-03
            5403            5537     1.67728E-03     1.70607E-03
            5403            5543     1.71247E-03     1.72824E-03
            5403            5544     1.67142E-03     1.68502E-03
            5404            5537     1.67728E-03     1.70607E-03
            5404            5538     1.54514E-03     1.56591E-03
            5404            5544     1.67142E-03     1.68502E-03
            5404            5545     1.51361E-03     1.52866E-03
            5405            5538     1.54514E-03     1.56591E-03
            5405            5539     1.30101E-03     1.31137E-03
            5405            5545     1.51361E-03     1.52866E-03
            5405            5546     1.20351E-03     1.22231E-03
            5406             951     1.15684E-03     1.16209E-03
            5406             952     1.01016E-03     1.02909E-03
            5406            5539     1.30101E-03     1.31137E-03
            5406            5546     1.20351E-03     1.22231E-03
            5407             204     1.01016E-03     1.02909E-03
            5407             205     955.962E-06     989.676E-06
            5407            5540     1.20351E-03     1.22231E-03
            5407            5547     1.18735E-03     1.20980E-03
            5408            5540     1.20351E-03     1.22231E-03
            5408            5541     1.51361E-03     1.52866E-03
            5408            5547     1.18735E-03     1.20980E-03
            5408            5548     1.51163E-03     1.52020E-03
            5409            5541     1.51361E-03     1.52866E-03
            5409            5542     1.67142E-03     1.68502E-03
            5409            5548     1.51163E-03     1.52020E-03
            5409            5549     1.63093E-03     1.63444E-03
            5410            5542     1.67142E-03     1.68502E-03
            5410            5543     1.71247E-03     1.72824E-03
            5410            5549     1.63093E-03     1.63444E-03
            5410            5550     1.65734E-03     1.65840E-03
            5411            5543     1.71247E-03     1.72824E-03
            5411            5544     1.67142E-03     1.68502E-03
            5411            5550     1.65734E-03     1.65840E-03
            5411            5551     1.63093E-03     1.63444E-03
            5412            5544     1.67142E-03     1.68502E-03
            5412            5545     1.51361E-03     1.52866E-03
            5412            5551     1.63093E-03     1.63444E-03
            5412            5552     1.51163E-03     1.52020E-03
            5413            5545     1.51361E-03     1.52866E-03
            5413            5546     1.20351E-03     1.22231E-03
            5413            5552     1.51163E-03     1.52020E-03
            5413            5553     1.18735E-03     1.20980E-03
            5414             952     1.01016E-03     1.02909E-03
            5414             953     955.962E-06     989.676E-06
            5414            5546     1.20351E-03     1.22231E-03
            5414            5553     1.18735E-03     1.20980E-03
            5415             205     955.962E-06     989.676E-06
            5415             206     1.06747E-03     1.09268E-03
            5415            5547     1.18735E-03     1.20980E-03
            5415            5554     1.24852E-03     1.26503E-03
            5416            5547     1.18735E-03     1.20980E-03
            5416            5548     1.51163E-03     1.52020E-03
            5416            5554     1.24852E-03     1.26503E-03
            5416            5555     1.47964E-03     1.48268E-03
            5417            5548     1.51163E-03     1.52020E-03
            5417            5549     1.63093E-03     1.63444E-03
            5417            5555     1.47964E-03     1.48268E-03
            5417            5556     1.56284E-03     1.56041E-03
            5418            5549     1.63093E-03     1.63444E-03
            5418            5550     1.65734E-03     1.65840E-03
            5418            5556     1.56284E-03     1.56041E-03
            5418            5557     1.59597E-03     1.59284E-03
            5419            5550     1.65734E-03     1.65840E-03
            5419            5551     1.63093E-03     1.63444E-03
            5419            5557     1.59597E-03     1.59284E-03
            5419            5558     1.56284E-03     1.56041E-03
            5420            5551     1.63093E-03     1.63444E-03
            5420            5552     1.51163E-03     1.52020E-03
            5420            5558     1.56284E-03     1.56041E-03
            5420            5559     1.47964E-03     1.48268E-03
            5421            5552     1.51163E-03     1.52020E-03
            5421            5553     1.18735E-03     1.20980E-03
            5421            5559     1.47964E-03     1.48268E-03
            5421            5560     1.24852E-03     1.26503E-03
            5422             953     955.962E-06     989.676E-06
            5422             954     1.06747E-03     1.09268E-03
            5422            5553     1.18735E-03     1.20980E-03
            5422            5560     1.24852E-03     1.26503E-03
            5423              14     1.15698E-03     1.17003E-03
            5423             206     1.06747E-03     1.09268E-03
            5423             969     1.28482E-03     1.29436E-03
            5423            5554     1.24852E-03     1.26503E-03
            5424             968     1.44832E-03     1.44935E-03
            5424             969     1.28482E-03     1.29436E-03
            5424            5554     1.24852E-03     1.26503E-03
            5424            5555     1.47964E-03     1.48268E-03
            5425             967     1.52642E-03     1.52302E-03
            5425             968     1.44832E-03     1.44935E-03
            5425            5555     1.47964E-03     1.48268E-03
            5425            5556     1.56284E-03     1.56041E-03
            5426             966     1.56885E-03     1.56601E-03
            5426             967     1.52642E-03     1.52302E-03
            5426            5556     1.56284E-03     1.56041E-03
            5426            5557     1.59597E-03     1.59284E-03
            5427             965     1.52642E-03     1.52302E-03
            5427             966     1.56885E-03     1.56601E-03
            5427            5557     1.59597E-03     1.59284E-03
            5427            5558     1.56284E-03     1.56041E-03
            5428             964     1.44832E-03     1.44935E-03
            5428             965     1.52642E-03     1.52302E-03
            5428            5558     1.56284E-03     1.56041E-03
            5428            5559     1.47964E-03     1.48268E-03
            5429             963     1.28482E-03     1.29436E-03
            5429             964     1.44832E-03     1.44935E-03
            5429            5559     1.47964E-03     1.48268E-03
            5429            5560     1.24852E-03     1.26503E-03
            5430              41     1.15698E-03     1.17003E-03
            5430             954     1.06747E-03     1.09268E-03
            5430             963     1.28482E-03     1.29436E-03
            5430            5560     1.24852E-03     1.26503E-03
            6229              34     159.247E-03     152.684E-03
            6229             736     133.213E-03     127.686E-03
            6229             754     168.747E-03     163.087E-03
            6229            6281     142.316E-03     138.001E-03
            6230             735     86.5995E-03     83.2130E-03
            6230             736     133.213E-03     127.686E-03
            6230            6281     142.316E-03     138.001E-03
            6230            6282     93.0668E-03     91.0597E-03
            6231             734     48.5828E-03     47.7143E-03
            6231             735     86.5995E-03     83.2130E-03
            6231            6282     93.0668E-03     91.0597E-03
            6231            6283     54.3741E-03     55.4655E-03
            6232             733     31.1462E-03     31.6906E-03
            6232             734     48.5828E-03     47.7143E-03
            6232            6283     54.3741E-03     55.4655E-03
            6232            6284     38.4998E-03     41.7271E-03
            6233             732     48.5828E-03     47.7143E-03
            6233             733     31.1462E-03     31.6906E-03
            6233            6284     38.4998E-03     41.7271E-03
            6233            6285     54.3741E-03     55.4655E-03
            6234             731     86.5995E-03     83.2130E-03
            6234             732     48.5828E-03     47.7143E-03
            6234            6285     54.3741E-03     55.4655E-03
            6234            6286     93.0668E-03     91.0597E-03
            6235             730     133.213E-03     127.686E-03
            6235             731     86.5995E-03     83.2130E-03
            6235            6286     93.0668E-03     91.0597E-03
            6235            6287     142.316E-03     138.001E-03
            6236              10     159.247E-03     152.684E-03
            6236             284     168.747E-03     163.087E-03
            6236             730     133.213E-03     127.686E-03
            6236            6287     142.316E-03     138.001E-03
            6237             754     168.747E-03     163.087E-03
            6237             755     157.451E-03     157.320E-03
            6237            6281     142.316E-03     138.001E-03
            6237            6288     137.319E-03     138.520E-03
            6238            6281     142.316E-03     138.001E-03
            6238            6282     93.0668E-03     91.0597E-03
            6238            6288     137.319E-03     138.520E-03
            6238            6289     96.4407E-03     99.5253E-03
            6239            6282     93.0668E-03     91.0597E-03
            6239            6283     54.3741E-03     55.4655E-03
            6239            6289     96.4407E-03     99.5253E-03
            6239            6290     60.7405E-03     65.2436E-03
            6240            6283     54.3741E-03     55.4655E-03
            6240            6284     38.4998E-03     41.7271E-03
            6240            6290     60.7405E-03     65.2436E-03
            6240            6291     45.7859E-03     51.1559E-03
            6241            6284     38.4998E-03     41.7271E-03
            6241            6285     54.3741E-03     55.4655E-03
            6241            6291     45.7859E-03     51.1559E-03
            6241            6292     60.7405E-03     65.2436E-03
            6242            6285     54.3741E-03     55.4655E-03
            6242            6286     93.0668E-03     91.0597E-03
            6242            6292     60.7405E-03     65.2436E-03
            6242            6293     96.4407E-03     99.5253E-03
            6243            6286     93.0668E-03     91.0597E-03
            6243            6287     142.316E-03     138.001E-03
            6243            6293     96.4407E-03     99.5253E-03
            6243            6294     137.319E-03     138.520E-03
            6244             283     157.451E-03     157.320E-03
            6244             284     168.747E-03     163.087E-03
            6244            6287     142.316E-03     138.001E-03
            6244            6294     137.319E-03     138.520E-03
            6245             755     157.451E-03     157.320E-03
            6245             756     149.472E-03     147.791E-03
            6245            6288     137.319E-03     138.520E-03
            6245            6295     130.404E-03     130.165E-03
            6246            6288     137.319E-03     138.520E-03
            6246            6289     96.4407E-03     99.5253E-03
            6246            6295     130.404E-03     130.165E-03
            6246            6296     93.9487E-03     96.2595E-03
            6247            6289     96.4407E-03     99.5253E-03
            6247            6290     60.7405E-03     65.2436E-03
            6247            6296     93.9487E-03     96.2595E-03
            6247            6297     62.8257E-03     66.9036E-03
            6248            6290     60.7405E-03     65.2436E-03
            6248            6291     45.7859E-03     51.1559E-03
            6248            6297     62.8257E-03     66.9036E-03
            6248            6298     49.0905E-03     53.8260E-03
            6249            6291     45.7859E-03     51.1559E-03
            6249            6292     60.7405E-03     65.2436E-03
            6249            6298     49.0905E-03     53.8260E-03
            6249            6299     62.8257E-03     66.9036E-03
            6250            6292     60.7405E-03     65.2436E-03
            6250            6293     96.4407E-03     99.5253E-03
            6250            6299     62.8257E-03     66.9036E-03
            6250            6300     93.9487E-03     96.2595E-03
            6251            6293     96.4407E-03     99.5253E-03
            6251            6294     137.319E-03     138.520E-03
            6251            6300     93.9487E-03     96.2595E-03
            6251            6301     130.404E-03     130.165E-03
            6252             282     149.472E-03     147.791E-03
            6252             283     157.451E-03     157.320E-03
            6252            6294     137.319E-03     138.520E-03
            6252            6301     130.404E-03     130.165E-03
            6253             756     149.472E-03     147.791E-03
            6253             757     143.180E-03     141.547E-03
            6253            6295     130.404E-03     130.165E-03
            6253            6302     125.034E-03     124.334E-03
            6254            6295     130.404E-03     130.165E-03
            6254            6296     93.9487E-03     96.2595E-03
            6254            6302     125.034E-03     124.334E-03
            6254            6303     90.1910E-03     91.1232E-03
            6255            6296     93.9487E-03     96.2595E-03
            6255            6297     62.8257E-03     66.9036E-03
            6255            6303     90.1910E-03     91.1232E-03
            6255            6304     61.7409E-03     63.7900E-03
            6256            6297     62.8257E-03     66.9036E-03
            6256            6298     49.0905E-03     53.8260E-03
            6256            6304     61.7409E-03     63.7900E-03
            6256            6305     49.9874E-03     52.4542E-03
            6257            6298     49.0905E-03     53.8260E-03
            6257            6299     62.8257E-03     66.9036E-03
            6257            6305     49.9874E-03     52.4542E-03
            6257            6306     61.7409E-03     63.7900E-03
            6258            6299     62.8257E-03     66.9036E-03
            6258            6300     93.9487E-03     96.2595E-03
            6258            6306     61.7409E-03     63.7900E-03
            6258            6307     90.1910E-03     91.1232E-03
            6259            6300     93.9487E-03     96.2595E-03
            6259            6301     130.404E-03     130.165E-03
            6259            6307     90.1910E-03     91.1232E-03
            6259            6308     125.034E-03     124.334E-03
            6260             281     143.180E-03     141.547E-03
            6260             282     149.472E-03     147.791E-03
            6260            6301     130.404E-03     130.165E-03
            6260            6308     125.034E-03     124.334E-03
            6261             757     143.180E-03     141.547E-03
            6261             758     136.615E-03     134.822E-03
            6261            6302     125.034E-03     124.334E-03
            6261            6309     119.349E-03     118.624E-03
            6262            6302     125.034E-03     124.334E-03
            6262            6303     90.1910E-03     91.1232E-03
            6262            6309     119.349E-03     118.624E-03
            6262            6310     86.7194E-03     87.2760E-03
            6263            6303     90.1910E-03     91.1232E-03
            6263            6304     61.7409E-03     63.7900E-03
            6263            6310     86.7194E-03     87.2760E-03
            6263            6311     60.1893E-03     60.5883E-03
            6264            6304     61.7409E-03     63.7900E-03
            6264            6305     49.9874E-03     52.4542E-03
            6264            6311     60.1893E-03     60.5883E-03
            6264            6312     49.0237E-03     49.0504E-03
            6265            6305     49.9874E-03     52.4542E-03
            6265            6306     61.7409E-03     63.7900E-03
            6265            6312     49.0237E-03     49.0504E-03
            6265            6313     60.1893E-03     60.5883E-03
            6266            6306     61.7409E-03     63.7900E-03
            6266            6307     90.1910E-03     91.1232E-03
            6266            6313     60.1893E-03     60.5883E-03
            6266            6314     86.7194E-03     87.2760E-03
            6267            6307     90.1910E-03     91.1232E-03
            6267            6308     125.034E-03     124.334E-03
            6267            6314     86.7194E-03     87.2760E-03
            6267            6315     119.349E-03     118.624E-03
            6268             280     136.615E-03     134.822E-03
            6268             281     143.180E-03     141.547E-03
            6268            6308     125.034E-03     124.334E-03
            6268            6315     119.349E-03     118.624E-03
            6269             758     136.615E-03     134.822E-03
            6269             759     129.634E-03     128.688E-03
            6269            6309     119.349E-03     118.624E-03
            6269            6316     113.558E-03     113.368E-03
            6270            6309     119.349E-03     118.624E-03
            6270            6310     86.7194E-03     87.2760E-03
            6270            6316     113.558E-03     113.368E-03
            6270            6317     83.1432E-03     83.6743E-03
            6271            6310     86.7194E-03     87.2760E-03
            6271            6311     60.1893E-03     60.5883E-03
            6271            6317     83.1432E-03     83.6743E-03
            6271            6318     58.5850E-03     57.7903E-03
            6272            6311     60.1893E-03     60.5883E-03
            6272            6312     49.0237E-03     49.0504E-03
            6272            6318     58.5850E-03     57.7903E-03
            6272            6319     48.3656E-03     46.2800E-03
            6273            6312     49.0237E-03     49.0504E-03
            6273            6313     60.1893E-03     60.5883E-03
            6273            6319     48.3656E-03     46.2800E-03
            6273            6320     58.5850E-03     57.7903E-03
            6274            6313     60.1893E-03     60.5883E-03
            6274            6314     86.7194E-03     87.2760E-03
            6274            6320     58.5850E-03     57.7903E-03
            6274            6321     83.1432E-03     83.6743E-03
            6275            6314     86.7194E-03     87.2760E-03
            6275            6315     119.349E-03     118.624E-03
            6275            6321     83.1432E-03     83.6743E-03
            6275            6322     113.558E-03     113.368E-03
            6276             279     129.634E-03     128.688E-03
            6276             280     136.615E-03     134.822E-03
            6276            6315     119.349E-03     118.624E-03
            6276            6322     113.558E-03     113.368E-03
            6277             759     129.634E-03     128.688E-03
            6277             760     122.519E-03     121.816E-03
            6277            6316     113.558E-03     113.368E-03
            6277            6323     107.719E-03     108.454E-03
            6278            6316     113.558E-03     113.368E-03
            6278            6317     83.1432E-03     83.6743E-03
            6278            6323     107.719E-03     108.454E-03
            6278            6324     79.9773E-03     81.0356E-03
            6279            6317     83.1432E-03     83.6743E-03
            6279            6318     58.5850E-03     57.7903E-03
            6279            6324     79.9773E-03     81.0356E-03
            6279            6325     57.2419E-03     54.9959E-03
            6280            6318     58.5850E-03     57.7903E-03
            6280            6319     48.3656E-03     46.2800E-03
            6280            6325     57.2419E-03     54.9959E-03
            6280            6326     47.4473E-03     43.0124E-03
            6281            6319     48.3656E-03     46.2800E-03
            6281            6320     58.5850E-03     57.7903E-03
            6281            6326     47.4473E-03     43.0124E-03
            6281            6327     57.2419E-03     54.9959E-03
            6282            6320     58.5850E-03     57.7903E-03
            6282            6321     83.1432E-03     83.6743E-03
            6282            6327     57.2419E-03     54.9959E-03
            6282            6328     79.9773E-03     81.0356E-03
            6283            6321     83.1432E-03     83.6743E-03
            6283            6322     113.558E-03     113.368E-03
            6283            6328     79.9773E-03     81.0356E-03
            6283            6329     107.719E-03     108.454E-03
            6284             278     122.519E-03     121.816E-03
            6284             279     129.634E-03     128.688E-03
            6284            6322     113.558E-03     113.368E-03
            6284            6329     107.719E-03     108.454E-03
            6285             760     122.519E-03     121.816E-03
            6285             761     114.049E-03     116.098E-03
            6285            6323     107.719E-03     108.454E-03
            6285            6330     101.608E-03     103.549E-03
            6286            6323     107.719E-03     108.454E-03
            6286            6324     79.9773E-03     81.0356E-03
            6286            6330     101.608E-03     103.549E-03
            6286            6331     77.1823E-03     76.6562E-03
            6287            6324     79.9773E-03     81.0356E-03
            6287            6325     57.2419E-03     54.9959E-03
            6287            6331     77.1823E-03     76.6562E-03
            6287            6332     56.1908E-03     51.8822E-03
            6288            6325     57.2419E-03     54.9959E-03
            6288            6326     47.4473E-03     43.0124E-03
            6288            6332     56.1908E-03     51.8822E-03
            6288            6333     47.1844E-03     41.4520E-03
            6289            6326     47.4473E-03     43.0124E-03
            6289            6327     57.2419E-03     54.9959E-03
            6289            6333     47.1844E-03     41.4520E-03
            6289            6334     56.1908E-03     51.8822E-03
            6290            6327     57.2419E-03     54.9959E-03
            6290            6328     79.9773E-03     81.0356E-03
            6290            6334     56.1908E-03     51.8822E-03
            6290            6335     77.1823E-03     76.6562E-03
            6291            6328     79.9773E-03     81.0356E-03
            6291            6329     107.719E-03     108.454E-03
            6291            6335     77.1823E-03     76.6562E-03
            6291            6336     101.608E-03     103.549E-03
            6292             277     114.049E-03     116.098E-03
            6292             278     122.519E-03     121.816E-03
            6292            6329     107.719E-03     108.454E-03
            6292            6336     101.608E-03     103.549E-03
            6293             761     114.049E-03     116.098E-03
            6293             762     104.213E-03     99.9073E-03
            6293            6330     101.608E-03     103.549E-03
            6293            6337     94.3111E-03     89.0598E-03
            6294            6330     101.608E-03     103.549E-03
            6294            6331     77.1823E-03     76.6562E-03
            6294            6337     94.3111E-03     89.0598E-03
            6294            6338     74.0125E-03     68.0639E-03
            6295            6331     77.1823E-03     76.6562E-03
            6295            6332     56.1908E-03     51.8822E-03
            6295            6338     74.0125E-03     68.0639E-03
            6295            6339     56.5888E-03     51.3800E-03
            6296            6332     56.1908E-03     51.8822E-03
            6296            6333     47.1844E-03     41.4520E-03
            6296            6339     56.5888E-03     51.3800E-03
            6296            6340     49.5620E-03     44.8447E-03
            6297            6333     47.1844E-03     41.4520E-03
            6297            6334     56.1908E-03     51.8822E-03
            6297            6340     49.5620E-03     44.8447E-03
            6297            6341     56.5888E-03     51.3800E-03
            6298            6334     56.1908E-03     51.8822E-03
            6298            6335     77.1823E-03     76.6562E-03
            6298            6341     56.5888E-03     51.3800E-03
            6298            6342     74.0125E-03     68.0639E-03
            6299            6335     77.1823E-03     76.6562E-03
            6299            6336     101.608E-03     103.549E-03
            6299            6342     74.0125E-03     68.0639E-03
            6299            6343     94.3111E-03     89.0598E-03
            6300             276     104.213E-03     99.9073E-03
            6300             277     114.049E-03     116.098E-03
            6300            6336     101.608E-03     103.549E-03
            6300            6343     94.3111E-03     89.0598E-03
            6301             762     104.213E-03     99.9073E-03
            6301             763     118.071E-03     106.658E-03
            6301            6337     94.3111E-03     89.0598E-03
            6301            6344     101.129E-03     91.0192E-03
            6302            6337     94.3111E-03     89.0598E-03
            6302            6338     74.0125E-03     68.0639E-03
            6302            6344     101.129E-03     91.0192E-03
            6302            6345     72.1297E-03     65.5318E-03
            6303            6338     74.0125E-03     68.0639E-03
            6303            6339     56.5888E-03     51.3800E-03
            6303            6345     72.1297E-03     65.5318E-03
            6303            6346     51.9599E-03     49.2009E-03
            6304            6339     56.5888E-03     51.3800E-03
            6304            6340     49.5620E-03     44.8447E-03
            6304            6346     51.9599E-03     49.2009E-03
            6304            6347     43.8474E-03     42.7184E-03
            6305            6340     49.5620E-03     44.8447E-03
            6305            6341     56.5888E-03     51.3800E-03
            6305            6347     43.8474E-03     42.7184E-03
            6305            6348     51.9599E-03     49.2009E-03
            6306            6341     56.5888E-03     51.3800E-03
            6306            6342     74.0125E-03     68.0639E-03
            6306            6348     51.9599E-03     49.2009E-03
            6306            6349     72.1297E-03     65.5318E-03
            6307            6342     74.0125E-03     68.0639E-03
            6307            6343     94.3111E-03     89.0598E-03
            6307            6349     72.1297E-03     65.5318E-03
            6307            6350     101.129E-03     91.0192E-03
            6308             275     118.071E-03     106.658E-03
            6308             276     104.213E-03     99.9073E-03
            6308            6343     94.3111E-03     89.0598E-03
            6308            6350     101.129E-03     91.0192E-03
            6309             763     118.071E-03     106.658E-03
            6309             764     130.139E-03     126.056E-03
            6309            6344     101.129E-03     91.0192E-03
            6309            6351     110.637E-03     107.833E-03
            6310            6344     101.129E-03     91.0192E-03
            6310            6345     72.1297E-03     65.5318E-03
            6310            6351     110.637E-03     107.833E-03
            6310            6352     75.1283E-03     74.3846E-03
            6311            6345     72.1297E-03     65.5318E-03
            6311            6346     51.9599E-03     49.2009E-03
            6311            6352     75.1283E-03     74.3846E-03
            6311            6353     49.8890E-03     51.1992E-03
            6312            6346     51.9599E-03     49.2009E-03
            6312            6347     43.8474E-03     42.7184E-03
            6312            6353     49.8890E-03     51.1992E-03
            6312            6354     40.6561E-03     43.2389E-03
            6313            6347     43.8474E-03     42.7184E-03
            6313            6348     51.9599E-03     49.2009E-03
            6313            6354     40.6561E-03     43.2389E-03
            6313            6355     49.8890E-03     51.1992E-03
            6314            6348     51.9599E-03     49.2009E-03
            6314            6349     72.1297E-03     65.5318E-03
            6314            6355     49.8890E-03     51.1992E-03
            6314            6356     75.1283E-03     74.3846E-03
            6315            6349     72.1297E-03     65.5318E-03
            6315            6350     101.129E-03     91.0192E-03
            6315            6356     75.1283E-03     74.3846E-03
            6315            6357     110.637E-03     107.833E-03
            6316             274     130.139E-03     126.056E-03
            6316             275     118.071E-03     106.658E-03
            6316            6350     101.129E-03     91.0192E-03
            6316            6357     110.637E-03     107.833E-03
            6317             764     130.139E-03     126.056E-03
            6317             765     118.214E-03     117.884E-03
            6317            6351     110.637E-03     107.833E-03
            6317            6358     104.663E-03     105.323E-03
            6318            6351     110.637E-03     107.833E-03
            6318            6352     75.1283E-03     74.3846E-03
            6318            6358     104.663E-03     105.323E-03
            6318            6359     77.5439E-03     79.8540E-03
            6319            6352     75.1283E-03     74.3846E-03
            6319            6353     49.8890E-03     51.1992E-03
            6319            6359     77.5439E-03     79.8540E-03
            6319            6360     55.4880E-03     58.9177E-03
            6320            6353     49.8890E-03     51.1992E-03
            6320            6354     40.6561E-03     43.2389E-03
            6320            6360     55.4880E-03     58.9177E-03
            6320            6361     47.0002E-03     50.8902E-03
            6321            6354     40.6561E-03     43.2389E-03
            6321            6355     49.8890E-03     51.1992E-03
            6321            6361     47.0002E-03     50.8902E-03
            6321            6362     55.4880E-03     58.9177E-03
            6322            6355     49.8890E-03     51.1992E-03
            6322            6356     75.1283E-03     74.3846E-03
            6322            6362     55.4880E-03     58.9177E-03
            6322            6363     77.5439E-03     79.8540E-03
            6323            6356     75.1283E-03     74.3846E-03
            6323            6357     110.637E-03     107.833E-03
            6323            6363     77.5439E-03     79.8540E-03
            6323            6364     104.663E-03     105.323E-03
            6324             273     118.214E-03     117.884E-03
            6324             274     130.139E-03     126.056E-03
            6324            6357     110.637E-03     107.833E-03
            6324            6364     104.663E-03     105.323E-03
            6325             765     118.214E-03     117.884E-03
            6325             766     109.614E-03     108.353E-03
            6325            6358     104.663E-03     105.323E-03
            6325            6365     97.3529E-03     97.0252E-03
            6326            6358     104.663E-03     105.323E-03
            6326            6359     77.5439E-03     79.8540E-03
            6326            6365     97.3529E-03     97.0252E-03
            6326            6366     74.8209E-03     76.3306E-03
            6327            6359     77.5439E-03     79.8540E-03
            6327            6360     55.4880E-03     58.9177E-03
            6327            6366     74.8209E-03     76.3306E-03
            6327            6367     57.3148E-03     60.1894E-03
            6328            6360     55.4880E-03     58.9177E-03
            6328            6361     47.0002E-03     50.8902E-03
            6328            6367     57.3148E-03     60.1894E-03
            6328            6368     50.0797E-03     53.4148E-03
            6329            6361     47.0002E-03     50.8902E-03
            6329            6362     55.4880E-03     58.9177E-03
            6329            6368     50.0797E-03     53.4148E-03
            6329            6369     57.3148E-03     60.1894E-03
            6330            6362     55.4880E-03     58.9177E-03
            6330            6363     77.5439E-03     79.8540E-03
            6330            6369     57.3148E-03     60.1894E-03
            6330            6370     74.8209E-03     76.3306E-03
            6331            6363     77.5439E-03     79.8540E-03
            6331            6364     104.663E-03     105.323E-03
            6331            6370     74.8209E-03     76.3306E-03
            6331            6371     97.3529E-03     97.0252E-03
            6332             272     109.614E-03     108.353E-03
            6332             273     118.214E-03     117.884E-03
            6332            6364     104.663E-03     105.323E-03
            6332            6371     97.3529E-03     97.0252E-03
            6333             766     109.614E-03     108.353E-03
            6333             767     102.800E-03     101.586E-03
            6333            6365     97.3529E-03     97.0252E-03
            6333            6372     91.6321E-03     91.0779E-03
            6334            6365     97.3529E-03     97.0252E-03
            6334            6366     74.8209E-03     76.3306E-03
            6334            6372     91.6321E-03     91.0779E-03
            6334            6373     71.1568E-03     71.7467E-03
            6335            6366     74.8209E-03     76.3306E-03
            6335            6367     57.3148E-03     60.1894E-03
            6335            6373     71.1568E-03     71.7467E-03
            6335            6374     56.4170E-03     57.7974E-03
            6336            6367     57.3148E-03     60.1894E-03
            6336            6368     50.0797E-03     53.4148E-03
            6336            6374     56.4170E-03     57.7974E-03
            6336            6375     50.9845E-03     52.6709E-03
            6337            6368     50.0797E-03     53.4148E-03
            6337            6369     57.3148E-03     60.1894E-03
            6337            6375     50.9845E-03     52.6709E-03
            6337            6376     56.4170E-03     57.7974E-03
            6338            6369     57.3148E-03     60.1894E-03
            6338            6370     74.8209E-03     76.3306E-03
            6338            6376     56.4170E-03     57.7974E-03
            6338            6377     71.1568E-03     71.7467E-03
            6339            6370     74.8209E-03     76.3306E-03
            6339            6371     97.3529E-03     97.0252E-03
            6339            6377     71.1568E-03     71.7467E-03
            6339            6378     91.6321E-03     91.0779E-03
            6340             271     102.800E-03     101.586E-03
            6340             272     109.614E-03     108.353E-03
            6340            6371     97.3529E-03     97.0252E-03
            6340            6378     91.6321E-03     91.0779E-03
            6341             767     102.800E-03     101.586E-03
            6341             768     95.7651E-03     94.5748E-03
            6341            6372     91.6321E-03     91.0779E-03
            6341            6379     85.7050E-03     85.2251E-03
            6342            6372     91.6321E-03     91.0779E-03
            6342            6373     71.1568E-03     71.7467E-03
            6342            6379     85.7050E-03     85.2251E-03
            6342            6380     67.7889E-03     68.1180E-03
            6343            6373     71.1568E-03     71.7467E-03
            6343            6374     56.4170E-03     57.7974E-03
            6343            6380     67.7889E-03     68.1180E-03
            6343            6381     55.1471E-03     55.3396E-03
            6344            6374     56.4170E-03     57.7974E-03
            6344            6375     50.9845E-03     52.6709E-03
            6344            6381     55.1471E-03     55.3396E-03
            6344            6382     50.3614E-03     50.3188E-03
            6345            6375     50.9845E-03     52.6709E-03
            6345            6376     56.4170E-03     57.7974E-03
            6345            6382     50.3614E-03     50.3188E-03
            6345            6383     55.1471E-03     55.3396E-03
            6346            6376     56.4170E-03     57.7974E-03
            6346            6377     71.1568E-03     71.7467E-03
            6346            6383     55.1471E-03     55.3396E-03
            6346            6384     67.7889E-03     68.1180E-03
            6347            6377     71.1568E-03     71.7467E-03
            6347            6378     91.6321E-03     91.0779E-03
            6347            6384     67.7889E-03     68.1180E-03
            6347            6385     85.7050E-03     85.2251E-03
            6348             270     95.7651E-03     94.5748E-03
            6348             271     102.800E-03     101.586E-03
            6348            6378     91.6321E-03     91.0779E-03
            6348            6385     85.7050E-03     85.2251E-03
            6349             768     95.7651E-03     94.5748E-03
            6349             769     88.5413E-03     88.0488E-03
            6349            6379     85.7050E-03     85.2251E-03
            6349            6386     79.8213E-03     79.7901E-03
            6350            6379     85.7050E-03     85.2251E-03
            6350            6380     67.7889E-03     68.1180E-03
            6350            6386     79.8213E-03     79.7901E-03
            6350            6387     64.4159E-03     64.6500E-03
            6351            6380     67.7889E-03     68.1180E-03
            6351            6381     55.1471E-03     55.3396E-03
            6351            6387     64.4159E-03     64.6500E-03
            6351            6388     53.7729E-03     52.9805E-03
            6352            6381     55.1471E-03     55.3396E-03
            6352            6382     50.3614E-03     50.3188E-03
            6352            6388     53.7729E-03     52.9805E-03
            6352            6389     49.8153E-03     48.1924E-03
            6353            6382     50.3614E-03     50.3188E-03
            6353            6383     55.1471E-03     55.3396E-03
            6353            6389     49.8153E-03     48.1924E-03
            6353            6390     53.7729E-03     52.9805E-03
            6354            6383     55.1471E-03     55.3396E-03
            6354            6384     67.7889E-03     68.1180E-03
            6354            6390     53.7729E-03     52.9805E-03
            6354            6391     64.4159E-03     64.6500E-03
            6355            6384     67.7889E-03     68.1180E-03
            6355            6385     85.7050E-03     85.2251E-03
            6355            6391     64.4159E-03     64.6500E-03
            6355            6392     79.8213E-03     79.7901E-03
            6356             269     88.5413E-03     88.0488E-03
            6356             270     95.7651E-03     94.5748E-03
            6356            6385     85.7050E-03     85.2251E-03
            6356            6392     79.8213E-03     79.7901E-03
            6357             769     88.5413E-03     88.0488E-03
            6357             770     81.2318E-03     81.0518E-03
            6357            6386     79.8213E-03     79.7901E-03
            6357            6393     74.0243E-03     74.6837E-03
            6358            6386     79.8213E-03     79.7901E-03
            6358            6387     64.4159E-03     64.6500E-03
            6358            6393     74.0243E-03     74.6837E-03
            6358            6394     61.5018E-03     61.8657E-03
            6359            6387     64.4159E-03     64.6500E-03
            6359            6388     53.7729E-03     52.9805E-03
            6359            6394     61.5018E-03     61.8657E-03
            6359            6395     52.5406E-03     50.5096E-03
            6360            6388     53.7729E-03     52.9805E-03
            6360            6389     49.8153E-03     48.1924E-03
            6360            6395     52.5406E-03     50.5096E-03
            6360            6396     48.8945E-03     45.6034E-03
            6361            6389     49.8153E-03     48.1924E-03
            6361            6390     53.7729E-03     52.9805E-03
            6361            6396     48.8945E-03     45.6034E-03
            6361            6397     52.5406E-03     50.5096E-03
            6362            6390     53.7729E-03     52.9805E-03
            6362            6391     64.4159E-03     64.6500E-03
            6362            6397     52.5406E-03     50.5096E-03
            6362            6398     61.5018E-03     61.8657E-03
            6363            6391     64.4159E-03     64.6500E-03
            6363            6392     79.8213E-03     79.7901E-03
            6363            6398     61.5018E-03     61.8657E-03
            6363            6399     74.0243E-03     74.6837E-03
            6364             268     81.2318E-03     81.0518E-03
            6364             269     88.5413E-03     88.0488E-03
            6364            6392     79.8213E-03     79.7901E-03
            6364            6399     74.0243E-03     74.6837E-03
            6365             770     81.2318E-03     81.0518E-03
            6365             771     72.6452E-03     74.6338E-03
            6365            6393     74.0243E-03     74.6837E-03
            6365            6400     68.0821E-03     69.4868E-03
            6366            6393     74.0243E-03     74.6837E-03
            6366            6394     61.5018E-03     61.8657E-03
            6366            6400     68.0821E-03     69.4868E-03
            6366            6401     59.1425E-03     58.1573E-03
            6367            6394     61.5018E-03     61.8657E-03
            6367            6395     52.5406E-03     50.5096E-03
            6367            6401     59.1425E-03     58.1573E-03
            6367            6402     51.3924E-03     47.9328E-03
            6368            6395     52.5406E-03     50.5096E-03
            6368            6396     48.8945E-03     45.6034E-03
            6368            6402     51.3924E-03     47.9328E-03
            6368            6403     48.0187E-03     43.8907E-03
            6369            6396     48.8945E-03     45.6034E-03
            6369            6397     52.5406E-03     50.5096E-03
            6369            6403     48.0187E-03     43.8907E-03
            6369            6404     51.3924E-03     47.9328E-03
            6370            6397     52.5406E-03     50.5096E-03
            6370            6398     61.5018E-03     61.8657E-03
            6370            6404     51.3924E-03     47.9328E-03
            6370            6405     59.1425E-03     58.1573E-03
            6371            6398     61.5018E-03     61.8657E-03
            6371            6399     74.0243E-03     74.6837E-03
            6371            6405     59.1425E-03     58.1573E-03
            6371            6406     68.0821E-03     69.4868E-03
            6372             267     72.6452E-03     74.6338E-03
            6372             268     81.2318E-03     81.0518E-03
            6372            6399     74.0243E-03     74.6837E-03
            6372            6406     68.0821E-03     69.4868E-03
            6373             771     72.6452E-03     74.6338E-03
            6373             772     62.6282E-03     60.3358E-03
            6373            6400     68.0821E-03     69.4868E-03
            6373            6407     61.4897E-03     58.1861E-03
            6374            6400     68.0821E-03     69.4868E-03
            6374            6401     59.1425E-03     58.1573E-03
            6374            6407     61.4897E-03     58.1861E-03
            6374            6408     56.8151E-03     52.7123E-03
            6375            6401     59.1425E-03     58.1573E-03
            6375            6402     51.3924E-03     47.9328E-03
            6375            6408     56.8151E-03     52.7123E-03
            6375            6409     50.9944E-03     47.4165E-03
            6376            6402     51.3924E-03     47.9328E-03
            6376            6403     48.0187E-03     43.8907E-03
            6376            6409     50.9944E-03     47.4165E-03
            6376            6410     48.7098E-03     45.4449E-03
            6377            6403     48.0187E-03     43.8907E-03
            6377            6404     51.3924E-03     47.9328E-03
            6377            6410     48.7098E-03     45.4449E-03
            6377            6411     50.9944E-03     47.4165E-03
            6378            6404     51.3924E-03     47.9328E-03
            6378            6405     59.1425E-03     58.1573E-03
            6378            6411     50.9944E-03     47.4165E-03
            6378            6412     56.8151E-03     52.7123E-03
            6379            6405     59.1425E-03     58.1573E-03
            6379            6406     68.0821E-03     69.4868E-03
            6379            6412     56.8151E-03     52.7123E-03
            6379            6413     61.4897E-03     58.1861E-03
            6380             266     62.6282E-03     60.3358E-03
            6380             267     72.6452E-03     74.6338E-03
            6380            6406     68.0821E-03     69.4868E-03
            6380            6413     61.4897E-03     58.1861E-03
            6381             772     62.6282E-03     60.3358E-03
            6381             773     77.4581E-03     70.7364E-03
            6381            6407     61.4897E-03     58.1861E-03
            6381            6414     69.6816E-03     63.9485E-03
            6382            6407     61.4897E-03     58.1861E-03
            6382            6408     56.8151E-03     52.7123E-03
            6382            6414     69.6816E-03     63.9485E-03
            6382            6415     56.3298E-03     52.8669E-03
            6383            6408     56.8151E-03     52.7123E-03
            6383            6409     50.9944E-03     47.4165E-03
            6383            6415     56.3298E-03     52.8669E-03
            6383            6416     47.9846E-03     46.5218E-03
            6384            6409     50.9944E-03     47.4165E-03
            6384            6410     48.7098E-03     45.4449E-03
            6384            6416     47.9846E-03     46.5218E-03
            6384            6417     45.2148E-03     44.4703E-03
            6385            6410     48.7098E-03     45.4449E-03
            6385            6411     50.9944E-03     47.4165E-03
            6385            6417     45.2148E-03     44.4703E-03
            6385            6418     47.9846E-03     46.5218E-03
            6386            6411     50.9944E-03     47.4165E-03
            6386            6412     56.8151E-03     52.7123E-03
            6386            6418     47.9846E-03     46.5218E-03
            6386            6419     56.3298E-03     52.8669E-03
            6387            6412     56.8151E-03     52.7123E-03
            6387            6413     61.4897E-03     58.1861E-03
            6387            6419     56.3298E-03     52.8669E-03
            6387            6420     69.6816E-03     63.9485E-03
            6388             265     77.4581E-03     70.7364E-03
            6388             266     62.6282E-03     60.3358E-03
            6388            6413     61.4897E-03     58.1861E-03
            6388            6420     69.6816E-03     63.9485E-03
            6389             773     77.4581E-03     70.7364E-03
            6389             774     90.6786E-03     88.3835E-03
            6389            6414     69.6816E-03     63.9485E-03
            6389            6421     79.3278E-03     78.0538E-03
            6390            6414     69.6816E-03     63.9485E-03
            6390            6415     56.3298E-03     52.8669E-03
            6390            6421     79.3278E-03     78.0538E-03
            6390            6422     59.5012E-03     59.6543E-03
            6391            6415     56.3298E-03     52.8669E-03
            6391            6416     47.9846E-03     46.5218E-03
            6391            6422     59.5012E-03     59.6543E-03
            6391            6423     47.5809E-03     48.5634E-03
            6392            6416     47.9846E-03     46.5218E-03
            6392            6417     45.2148E-03     44.4703E-03
            6392            6423     47.5809E-03     48.5634E-03
            6392            6424     44.1364E-03     45.5422E-03
            6393            6417     45.2148E-03     44.4703E-03
            6393            6418     47.9846E-03     46.5218E-03
            6393            6424     44.1364E-03     45.5422E-03
            6393            6425     47.5809E-03     48.5634E-03
            6394            6418     47.9846E-03     46.5218E-03
            6394            6419     56.3298E-03     52.8669E-03
            6394            6425     47.5809E-03     48.5634E-03
            6394            6426     59.5012E-03     59.6543E-03
            6395            6419     56.3298E-03     52.8669E-03
            6395            6420     69.6816E-03     63.9485E-03
            6395            6426     59.5012E-03     59.6543E-03
            6395            6427     79.3278E-03     78.0538E-03
            6396             264     90.6786E-03     88.3835E-03
            6396             265     77.4581E-03     70.7364E-03
            6396            6420     69.6816E-03     63.9485E-03
            6396            6427     79.3278E-03     78.0538E-03
            6397             774     90.6786E-03     88.3835E-03
            6397             775     78.4735E-03     78.1049E-03
            6397            6421     79.3278E-03     78.0538E-03
            6397            6428     72.6548E-03     72.7874E-03
            6398            6421     79.3278E-03     78.0538E-03
            6398            6422     59.5012E-03     59.6543E-03
            6398            6428     72.6548E-03     72.7874E-03
            6398            6429     61.0127E-03     62.1890E-03
            6399            6422     59.5012E-03     59.6543E-03
            6399            6423     47.5809E-03     48.5634E-03
            6399            6429     61.0127E-03     62.1890E-03
            6399            6430     52.1634E-03     54.0201E-03
            6400            6423     47.5809E-03     48.5634E-03
            6400            6424     44.1364E-03     45.5422E-03
            6400            6430     52.1634E-03     54.0201E-03
            6400            6431     49.1375E-03     51.1321E-03
            6401            6424     44.1364E-03     45.5422E-03
            6401            6425     47.5809E-03     48.5634E-03
            6401            6431     49.1375E-03     51.1321E-03
            6401            6432     52.1634E-03     54.0201E-03
            6402            6425     47.5809E-03     48.5634E-03
            6402            6426     59.5012E-03     59.6543E-03
            6402            6432     52.1634E-03     54.0201E-03
            6402            6433     61.0127E-03     62.1890E-03
            6403            6426     59.5012E-03     59.6543E-03
            6403            6427     79.3278E-03     78.0538E-03
            6403            6433     61.0127E-03     62.1890E-03
            6403            6434     72.6548E-03     72.7874E-03
            6404             263     78.4735E-03     78.1049E-03
            6404             264     90.6786E-03     88.3835E-03
            6404            6427     79.3278E-03     78.0538E-03
            6404            6434     72.6548E-03     72.7874E-03
            6405             775     78.4735E-03     78.1049E-03
            6405             776     69.6944E-03     68.9851E-03
            6405            6428     72.6548E-03     72.7874E-03
            6405            6435     65.3934E-03     65.0328E-03
            6406            6428     72.6548E-03     72.7874E-03
            6406            6429     61.0127E-03     62.1890E-03
            6406            6435     65.3934E-03     65.0328E-03
            6406            6436     58.3662E-03     58.9245E-03
            6407            6429     61.0127E-03     62.1890E-03
            6407            6430     52.1634E-03     54.0201E-03
            6407            6436     58.3662E-03     58.9245E-03
            6407            6437     53.7410E-03     55.1587E-03
            6408            6430     52.1634E-03     54.0201E-03
            6408            6431     49.1375E-03     51.1321E-03
            6408            6437     53.7410E-03     55.1587E-03
            6408            6438     51.8420E-03     53.5489E-03
            6409            6431     49.1375E-03     51.1321E-03
            6409            6432     52.1634E-03     54.0201E-03
            6409            6438     51.8420E-03     53.5489E-03
            6409            6439     53.7410E-03     55.1587E-03
            6410            6432     52.1634E-03     54.0201E-03
            6410            6433     61.0127E-03     62.1890E-03
            6410            6439     53.7410E-03     55.1587E-03
            6410            6440     58.3662E-03     58.9245E-03
            6411            6433     61.0127E-03     62.1890E-03
            6411            6434     72.6548E-03     72.7874E-03
            6411            6440     58.3662E-03     58.9245E-03
            6411            6441     65.3934E-03     65.0328E-03
            6412             262     69.6944E-03     68.9851E-03
            6412             263     78.4735E-03     78.1049E-03
            6412            6434     72.6548E-03     72.7874E-03
            6412            6441     65.3934E-03     65.0328E-03
            6413             776     69.6944E-03     68.9851E-03
            6413             777     62.8759E-03     62.1048E-03
            6413            6435     65.3934E-03     65.0328E-03
            6413            6442     59.9215E-03     59.4952E-03
            6414            6435     65.3934E-03     65.0328E-03
            6414            6436     58.3662E-03     58.9245E-03
            6414            6442     59.9215E-03     59.4952E-03
            6414            6443     55.3134E-03     55.4908E-03
            6415            6436     58.3662E-03     58.9245E-03
            6415            6437     53.7410E-03     55.1587E-03
            6415            6443     55.3134E-03     55.4908E-03
            6415            6444     53.1978E-03     53.8850E-03
            6416            6437     53.7410E-03     55.1587E-03
            6416            6438     51.8420E-03     53.5489E-03
            6416            6444     53.1978E-03     53.8850E-03
            6416            6445     52.7360E-03     53.6739E-03
            6417            6438     51.8420E-03     53.5489E-03
            6417            6439     53.7410E-03     55.1587E-03
            6417            6445     52.7360E-03     53.6739E-03
            6417            6446     53.1978E-03     53.8850E-03
            6418            6439     53.7410E-03     55.1587E-03
            6418            6440     58.3662E-03     58.9245E-03
            6418            6446     53.1978E-03     53.8850E-03
            6418            6447     55.3134E-03     55.4908E-03
            6419            6440     58.3662E-03     58.9245E-03
            6419            6441     65.3934E-03     65.0328E-03
            6419            6447     55.3134E-03     55.4908E-03
            6419            6448     59.9215E-03     59.4952E-03
            6420             261     62.8759E-03     62.1048E-03
            6420             262     69.6944E-03     68.9851E-03
            6420            6441     65.3934E-03     65.0328E-03
            6420            6448     59.9215E-03     59.4952E-03
            6421             777     62.8759E-03     62.1048E-03
            6421             778     56.0983E-03     55.4917E-03
            6421            6442     59.9215E-03     59.4952E-03
            6421            6449     54.5317E-03     54.1734E-03
            6422            6442     59.9215E-03     59.4952E-03
            6422            6443     55.3134E-03     55.4908E-03
            6422            6449     54.5317E-03     54.1734E-03
            6422            6450     52.6808E-03     52.7339E-03
            6423            6443     55.3134E-03     55.4908E-03
            6423            6444     53.1978E-03     53.8850E-03
            6423            6450     52.6808E-03     52.7339E-03
            6423            6451     52.4219E-03     52.6372E-03
            6424            6444     53.1978E-03     53.8850E-03
            6424            6445     52.7360E-03     53.6739E-03
            6424            6451     52.4219E-03     52.6372E-03
            6424            6452     52.4474E-03     52.6617E-03
            6425            6445     52.7360E-03     53.6739E-03
            6425            6446     53.1978E-03     53.8850E-03
            6425            6452     52.4474E-03     52.6617E-03
            6425            6453     52.4219E-03     52.6372E-03
            6426            6446     53.1978E-03     53.8850E-03
            6426            6447     55.3134E-03     55.4908E-03
            6426            6453     52.4219E-03     52.6372E-03
            6426            6454     52.6808E-03     52.7339E-03
            6427            6447     55.3134E-03     55.4908E-03
            6427            6448     59.9215E-03     59.4952E-03
            6427            6454     52.6808E-03     52.7339E-03
            6427            6455     54.5317E-03     54.1734E-03
            6428             260     56.0983E-03     55.4917E-03
            6428             261     62.8759E-03     62.1048E-03
            6428            6448     59.9215E-03     59.4952E-03
            6428            6455     54.5317E-03     54.1734E-03
            6429             778     56.0983E-03     55.4917E-03
            6429             779     49.6737E-03     49.2451E-03
            6429            6449     54.5317E-03     54.1734E-03
            6429            6456     49.5457E-03     49.3599E-03
            6430            6449     54.5317E-03     54.1734E-03
            6430            6450     52.6808E-03     52.7339E-03
            6430            6456     49.5457E-03     49.3599E-03
            6430            6457     50.1991E-03     50.1725E-03
            6431            6450     52.6808E-03     52.7339E-03
            6431            6451     52.4219E-03     52.6372E-03
            6431            6457     50.1991E-03     50.1725E-03
            6431            6458     51.5998E-03     51.3756E-03
            6432            6451     52.4219E-03     52.6372E-03
            6432            6452     52.4474E-03     52.6617E-03
            6432            6458     51.5998E-03     51.3756E-03
            6432            6459     52.2192E-03     51.8808E-03
            6433            6452     52.4474E-03     52.6617E-03
            6433            6453     52.4219E-03     52.6372E-03
            6433            6459     52.2192E-03     51.8808E-03
            6433            6460     51.5998E-03     51.3756E-03
            6434            6453     52.4219E-03     52.6372E-03
            6434            6454     52.6808E-03     52.7339E-03
            6434            6460     51.5998E-03     51.3756E-03
            6434            6461     50.1991E-03     50.1725E-03
            6435            6454     52.6808E-03     52.7339E-03
            6435            6455     54.5317E-03     54.1734E-03
            6435            6461     50.1991E-03     50.1725E-03
            6435            6462     49.5457E-03     49.3599E-03
            6436             259     49.6737E-03     49.2451E-03
            6436             260     56.0983E-03     55.4917E-03
            6436            6455     54.5317E-03     54.1734E-03
            6436            6462     49.5457E-03     49.3599E-03
            6437             779     49.6737E-03     49.2451E-03
            6437             780     43.5566E-03     43.5732E-03
            6437            6456     49.5457E-03     49.3599E-03
            6437            6463     45.0149E-03     45.1130E-03
            6438            6456     49.5457E-03     49.3599E-03
            6438            6457     50.1991E-03     50.1725E-03
            6438            6463     45.0149E-03     45.1130E-03
            6438            6464     48.1587E-03     48.0703E-03
            6439            6457     50.1991E-03     50.1725E-03
            6439            6458     51.5998E-03     51.3756E-03
            6439            6464     48.1587E-03     48.0703E-03
            6439            6465     50.8634E-03     50.1582E-03
            6440            6458     51.5998E-03     51.3756E-03
            6440            6459     52.2192E-03     51.8808E-03
            6440            6465     50.8634E-03     50.1582E-03
            6440            6466     51.8825E-03     50.8288E-03
            6441            6459     52.2192E-03     51.8808E-03
            6441            6460     51.5998E-03     51.3756E-03
            6441            6466     51.8825E-03     50.8288E-03
            6441            6467     50.8634E-03     50.1582E-03
            6442            6460     51.5998E-03     51.3756E-03
            6442            6461     50.1991E-03     50.1725E-03
            6442            6467     50.8634E-03     50.1582E-03
            6442            6468     48.1587E-03     48.0703E-03
            6443            6461     50.1991E-03     50.1725E-03
            6443            6462     49.5457E-03     49.3599E-03
            6443            6468     48.1587E-03     48.0703E-03
            6443            6469     45.0149E-03     45.1130E-03
            6444             258     43.5566E-03     43.5732E-03
            6444             259     49.6737E-03     49.2451E-03
            6444            6462     49.5457E-03     49.3599E-03
            6444            6469     45.0149E-03     45.1130E-03
            6445             780     43.5566E-03     43.5732E-03
            6445             781     37.6744E-03     38.2649E-03
            6445            6463     45.0149E-03     45.1130E-03
            6445            6470     40.9260E-03     41.4534E-03
            6446            6463     45.0149E-03     45.1130E-03
            6446            6464     48.1587E-03     48.0703E-03
            6446            6470     40.9260E-03     41.4534E-03
            6446            6471     46.7730E-03     46.5018E-03
            6447            6464     48.1587E-03     48.0703E-03
            6447            6465     50.8634E-03     50.1582E-03
            6447            6471     46.7730E-03     46.5018E-03
            6447            6472     50.1773E-03     48.7843E-03
            6448            6465     50.8634E-03     50.1582E-03
            6448            6466     51.8825E-03     50.8288E-03
            6448            6472     50.1773E-03     48.7843E-03
            6448            6473     50.9861E-03     49.2070E-03
            6449            6466     51.8825E-03     50.8288E-03
            6449            6467     50.8634E-03     50.1582E-03
            6449            6473     50.9861E-03     49.2070E-03
            6449            6474     50.1773E-03     48.7843E-03
            6450            6467     50.8634E-03     50.1582E-03
            6450            6468     48.1587E-03     48.0703E-03
            6450            6474     50.1773E-03     48.7843E-03
            6450            6475     46.7730E-03     46.5018E-03
            6451            6468     48.1587E-03     48.0703E-03
            6451            6469     45.0149E-03     45.1130E-03
            6451            6475     46.7730E-03     46.5018E-03
            6451            6476     40.9260E-03     41.4534E-03
            6452             257     37.6744E-03     38.2649E-03
            6452             258     43.5566E-03     43.5732E-03
            6452            6469     45.0149E-03     45.1130E-03
            6452            6476     40.9260E-03     41.4534E-03
            6453             781     37.6744E-03     38.2649E-03
            6453             782     32.4832E-03     34.2315E-03
            6453            6470     40.9260E-03     41.4534E-03
            6453            6477     38.1635E-03     38.8852E-03
            6454            6470     40.9260E-03     41.4534E-03
            6454            6471     46.7730E-03     46.5018E-03
            6454            6477     38.1635E-03     38.8852E-03
            6454            6478     46.1474E-03     45.0932E-03
            6455            6471     46.7730E-03     46.5018E-03
            6455            6472     50.1773E-03     48.7843E-03
            6455            6478     46.1474E-03     45.0932E-03
            6455            6479     48.9323E-03     46.9814E-03
            6456            6472     50.1773E-03     48.7843E-03
            6456            6473     50.9861E-03     49.2070E-03
            6456            6479     48.9323E-03     46.9814E-03
            6456            6480     49.4135E-03     47.3155E-03
            6457            6473     50.9861E-03     49.2070E-03
            6457            6474     50.1773E-03     48.7843E-03
            6457            6480     49.4135E-03     47.3155E-03
            6457            6481     48.9323E-03     46.9814E-03
            6458            6474     50.1773E-03     48.7843E-03
            6458            6475     46.7730E-03     46.5018E-03
            6458            6481     48.9323E-03     46.9814E-03
            6458            6482     46.1474E-03     45.0932E-03
            6459            6475     46.7730E-03     46.5018E-03
            6459            6476     40.9260E-03     41.4534E-03
            6459            6482     46.1474E-03     45.0932E-03
            6459            6483     38.1635E-03     38.8852E-03
            6460             256     32.4832E-03     34.2315E-03
            6460             257     37.6744E-03     38.2649E-03
            6460            6476     40.9260E-03     41.4534E-03
            6460            6483     38.1635E-03     38.8852E-03
            6461             782     32.4832E-03     34.2315E-03
            6461             783     29.8274E-03     31.0231E-03
            6461            6477     38.1635E-03     38.8852E-03
            6461            6484     36.6751E-03     36.4768E-03
            6462            6477     38.1635E-03     38.8852E-03
            6462            6478     46.1474E-03     45.0932E-03
            6462            6484     36.6751E-03     36.4768E-03
            6462            6485     44.9673E-03     43.3625E-03
            6463            6478     46.1474E-03     45.0932E-03
            6463            6479     48.9323E-03     46.9814E-03
            6463            6485     44.9673E-03     43.3625E-03
            6463            6486     47.1669E-03     45.5733E-03
            6464            6479     48.9323E-03     46.9814E-03
            6464            6480     49.4135E-03     47.3155E-03
            6464            6486     47.1669E-03     45.5733E-03
            6464            6487     47.9220E-03     46.3523E-03
            6465            6480     49.4135E-03     47.3155E-03
            6465            6481     48.9323E-03     46.9814E-03
            6465            6487     47.9220E-03     46.3523E-03
            6465            6488     47.1669E-03     45.5733E-03
            6466            6481     48.9323E-03     46.9814E-03
            6466            6482     46.1474E-03     45.0932E-03
            6466            6488     47.1669E-03     45.5733E-03
            6466            6489     44.9673E-03     43.3625E-03
            6467            6482     46.1474E-03     45.0932E-03
            6467            6483     38.1635E-03     38.8852E-03
            6467            6489     44.9673E-03     43.3625E-03
            6467            6490     36.6751E-03     36.4768E-03
            6468             255     29.8274E-03     31.0231E-03
            6468             256     32.4832E-03     34.2315E-03
            6468            6483     38.1635E-03     38.8852E-03
            6468            6490     36.6751E-03     36.4768E-03
            6469             783     29.8274E-03     31.0231E-03
            6469             784     37.9483E-03     37.4250E-03
            6469            6484     36.6751E-03     36.4768E-03
            6469            6491     41.3507E-03     40.7355E-03
            6470            6484     36.6751E-03     36.4768E-03
            6470            6485     44.9673E-03     43.3625E-03
            6470            6491     41.3507E-03     40.7355E-03
            6470            6492     45.3807E-03     44.7387E-03
            6471            6485     44.9673E-03     43.3625E-03
            6471            6486     47.1669E-03     45.5733E-03
            6471            6492     45.3807E-03     44.7387E-03
            6471            6493     46.9335E-03     46.3882E-03
            6472            6486     47.1669E-03     45.5733E-03
            6472            6487     47.9220E-03     46.3523E-03
            6472            6493     46.9335E-03     46.3882E-03
            6472            6494     47.8586E-03     47.3448E-03
            6473            6487     47.9220E-03     46.3523E-03
            6473            6488     47.1669E-03     45.5733E-03
            6473            6494     47.8586E-03     47.3448E-03
            6473            6495     46.9335E-03     46.3882E-03
            6474            6488     47.1669E-03     45.5733E-03
            6474            6489     44.9673E-03     43.3625E-03
            6474            6495     46.9335E-03     46.3882E-03
            6474            6496     45.3807E-03     44.7387E-03
            6475            6489     44.9673E-03     43.3625E-03
            6475            6490     36.6751E-03     36.4768E-03
            6475            6496     45.3807E-03     44.7387E-03
            6475            6497     41.3507E-03     40.7355E-03
            6476             254     37.9483E-03     37.4250E-03
            6476             255     29.8274E-03     31.0231E-03
            6476            6490     36.6751E-03     36.4768E-03
            6476            6497     41.3507E-03     40.7355E-03
            6477             784     37.9483E-03     37.4250E-03
            6477             785     41.0088E-03     40.7646E-03
            6477            6491     41.3507E-03     40.7355E-03
            6477            6498     44.4618E-03     44.4748E-03
            6478            6491     41.3507E-03     40.7355E-03
            6478            6492     45.3807E-03     44.7387E-03
            6478            6498     44.4618E-03     44.4748E-03
            6478            6499     48.2666E-03     48.4395E-03
            6479            6492     45.3807E-03     44.7387E-03
            6479            6493     46.9335E-03     46.3882E-03
            6479            6499     48.2666E-03     48.4395E-03
            6479            6500     48.7707E-03     48.8058E-03
            6480            6493     46.9335E-03     46.3882E-03
            6480            6494     47.8586E-03     47.3448E-03
            6480            6500     48.7707E-03     48.8058E-03
            6480            6501     48.9231E-03     48.9178E-03
            6481            6494     47.8586E-03     47.3448E-03
            6481            6495     46.9335E-03     46.3882E-03
            6481            6501     48.9231E-03     48.9178E-03
            6481            6502     48.7707E-03     48.8058E-03
            6482            6495     46.9335E-03     46.3882E-03
            6482            6496     45.3807E-03     44.7387E-03
            6482            6502     48.7707E-03     48.8058E-03
            6482            6503     48.2666E-03     48.4395E-03
            6483            6496     45.3807E-03     44.7387E-03
            6483            6497     41.3507E-03     40.7355E-03
            6483            6503     48.2666E-03     48.4395E-03
            6483            6504     44.4618E-03     44.4748E-03
            6484             253     41.0088E-03     40.7646E-03
            6484             254     37.9483E-03     37.4250E-03
            6484            6497     41.3507E-03     40.7355E-03
            6484            6504     44.4618E-03     44.4748E-03
            6485             785     41.0088E-03     40.7646E-03
            6485             786     33.4892E-03     33.9108E-03
            6485            6498     44.4618E-03     44.4748E-03
            6485            6505     41.0215E-03     41.1148E-03
            6486            6498     44.4618E-03     44.4748E-03
            6486            6499     48.2666E-03     48.4395E-03
            6486            6505     41.0215E-03     41.1148E-03
            6486            6506     49.5968E-03     49.5077E-03
            6487            6499     48.2666E-03     48.4395E-03
            6487            6500     48.7707E-03     48.8058E-03
            6487            6506     49.5968E-03     49.5077E-03
            6487            6507     50.1682E-03     50.1832E-03
            6488            6500     48.7707E-03     48.8058E-03
            6488            6501     48.9231E-03     48.9178E-03
            6488            6507     50.1682E-03     50.1832E-03
            6488            6508     49.6966E-03     49.6698E-03
            6489            6501     48.9231E-03     48.9178E-03
            6489            6502     48.7707E-03     48.8058E-03
            6489            6508     49.6966E-03     49.6698E-03
            6489            6509     50.1682E-03     50.1832E-03
            6490            6502     48.7707E-03     48.8058E-03
            6490            6503     48.2666E-03     48.4395E-03
            6490            6509     50.1682E-03     50.1832E-03
            6490            6510     49.5968E-03     49.5077E-03
            6491            6503     48.2666E-03     48.4395E-03
            6491            6504     44.4618E-03     44.4748E-03
            6491            6510     49.5968E-03     49.5077E-03
            6491            6511     41.0215E-03     41.1148E-03
            6492             252     33.4892E-03     33.9108E-03
            6492             253     41.0088E-03     40.7646E-03
            6492            6504     44.4618E-03     44.4748E-03
            6492            6511     41.0215E-03     41.1148E-03
            6493             786     33.4892E-03     33.9108E-03
            6493             787     33.7874E-03     34.0044E-03
            6493            6505     41.0215E-03     41.1148E-03
            6493            6512     40.3438E-03     40.3050E-03
            6494            6505     41.0215E-03     41.1148E-03
            6494            6506     49.5968E-03     49.5077E-03
            6494            6512     40.3438E-03     40.3050E-03
            6494            6513     48.1650E-03     47.9631E-03
            6495            6506     49.5968E-03     49.5077E-03
            6495            6507     50.1682E-03     50.1832E-03
            6495            6513     48.1650E-03     47.9631E-03
            6495            6514     49.7394E-03     49.6730E-03
            6496            6507     50.1682E-03     50.1832E-03
            6496            6508     49.6966E-03     49.6698E-03
            6496            6514     49.7394E-03     49.6730E-03
            6496            6515     50.0491E-03     50.0256E-03
            6497            6508     49.6966E-03     49.6698E-03
            6497            6509     50.1682E-03     50.1832E-03
            6497            6515     50.0491E-03     50.0256E-03
            6497            6516     49.7394E-03     49.6730E-03
            6498            6509     50.1682E-03     50.1832E-03
            6498            6510     49.5968E-03     49.5077E-03
            6498            6516     49.7394E-03     49.6730E-03
            6498            6517     48.1650E-03     47.9631E-03
            6499            6510     49.5968E-03     49.5077E-03
            6499            6511     41.0215E-03     41.1148E-03
            6499            6517     48.1650E-03     47.9631E-03
            6499            6518     40.3438E-03     40.3050E-03
            6500             251     33.7874E-03     34.0044E-03
            6500             252     33.4892E-03     33.9108E-03
            6500            6511     41.0215E-03     41.1148E-03
            6500            6518     40.3438E-03     40.3050E-03
            6501              13     19.0542E-03     18.9080E-03
            6501             787     33.7874E-03     34.0044E-03
            6501             956     21.3711E-03     21.2970E-03
            6501            6512     40.3438E-03     40.3050E-03
            6502             956     21.3711E-03     21.2970E-03
            6502             957     24.1970E-03     24.1470E-03
            6502            6512     40.3438E-03     40.3050E-03
            6502            6513     48.1650E-03     47.9631E-03
            6503             957     24.1970E-03     24.1470E-03
            6503             958     25.2727E-03     25.2254E-03
            6503            6513     48.1650E-03     47.9631E-03
            6503            6514     49.7394E-03     49.6730E-03
            6504             958     25.2727E-03     25.2254E-03
            6504             959     25.8393E-03     25.8429E-03
            6504            6514     49.7394E-03     49.6730E-03
            6504            6515     50.0491E-03     50.0256E-03
            6505             959     25.8393E-03     25.8429E-03
            6505             960     25.2727E-03     25.2254E-03
            6505            6515     50.0491E-03     50.0256E-03
            6505            6516     49.7394E-03     49.6730E-03
            6506             960     25.2727E-03     25.2254E-03
            6506             961     24.1970E-03     24.1470E-03
            6506            6516     49.7394E-03     49.6730E-03
            6506            6517     48.1650E-03     47.9631E-03
            6507             961     24.1970E-03     24.1470E-03
            6507             962     21.3711E-03     21.2970E-03
            6507            6517     48.1650E-03     47.9631E-03
            6507            6518     40.3438E-03     40.3050E-03
            6508              15     19.0542E-03     18.9080E-03
            6508             251     33.7874E-03     34.0044E-03
            6508             962     21.3711E-03     21.2970E-03
            6508            6518     40.3438E-03     40.3050E-03


  Minimum                            955.962E-06     989.676E-06
      At Element                            5422            5422
            Node                             953             953

  Maximum                            189.870E-03     182.495E-03
      At Element                            3946            3850
            Node                               8             189

           Total                         218.237         216.114


